# vtk DataFile Version 2.0
Unstructured Grid Example
ASCII
DATASET UNSTRUCTURED_GRID
POINTS 198 float
0.0 27.6427707672 -0.0275148991495
5.02283382416 27.3739204407 -0.20332300663
9.71967506409 26.5883560181 -0.234990999103
14.1935577393 25.1137065887 -0.23410500586
18.3796443939 22.9593811035 -0.234083995223
22.1742229462 20.1784744263 -0.233704999089
25.4818992615 16.8371448517 -0.233554005623
28.2202262878 13.0182466507 -0.234411999583
30.3025856018 8.82907772064 -0.248350992799
31.6047801971 4.44692802429 -0.323908001184
32.0548400879 0.0 -0.369877010584
0.0 29.5122489929 -0.0942550003529
5.21531581879 29.3498973846 -0.217784002423
10.1964302063 28.5304794312 -0.235643997788
14.9669942856 26.9575786591 -0.233971998096
19.4320964813 24.6603851318 -0.233623996377
23.4807262421 21.6934394836 -0.232897996902
27.0109233856 18.1277160645 -0.23249900341
29.9336585999 14.0516767502 -0.23239299655
32.1671409607 9.57233810425 -0.240880995989
33.6085968018 4.84754037857 -0.291431993246
34.117351532 0.0 -0.325125008821
0.0 31.43957901 -0.193309992552
5.40697908401 31.3354263306 -0.233971998096
10.6748332977 30.4728813171 -0.235675007105
15.7413082123 28.8012619019 -0.234192997217
20.4851493835 26.3609600067 -0.233059003949
24.7875156403 23.2077121735 -0.231966003776
28.5400981903 19.417591095 -0.231212005019
31.6469726562 15.0837802887 -0.230637997389
34.0259132385 10.3150062561 -0.233391001821
35.5860824585 5.24838352203 -0.253556013107
36.1485786438 0.0 -0.269663989544
0.0 33.4186401367 -0.286379992962
5.59318113327 33.3265228271 -0.246179997921
11.1530637741 32.415145874 -0.235526993871
16.5159816742 30.6453075409 -0.234501004219
21.5382575989 28.0613555908 -0.232448995113
26.0942764282 24.7217502594 -0.23105199635
30.0691051483 20.7070617676 -0.22988499701
33.3604164124 16.1149024963 -0.228940993547
35.8824577332 11.0586099625 -0.228988006711
37.5486869812 5.64733552933 -0.2269680053
38.1543006897 0.0 -0.224626004696
0.0 35.4336204529 -0.408724009991
5.80575656891 35.3259773254 -0.265302985907
11.6297054291 34.3573265076 -0.234481006861
17.2905979156 32.4897880554 -0.234972000122
22.5910625458 29.7618179321 -0.231753006577
27.4007606506 26.2358264923 -0.230266004801
31.5977458954 21.9964141846 -0.228532999754
35.073600769 17.1459388733 -0.227513000369
37.737827301 11.8028211594 -0.225066006184
39.4980735779 6.04888963699 -0.200102999806
40.1348686218 0.0 -0.180674999952
0.0 37.5 -0.480241000652
6.00194549561 37.3358345032 -0.279013991356
12.1062240601 36.2987442017 -0.234013006091
18.0643768311 34.335231781 -0.235075995326
23.6434020996 31.4621925354 -0.231135994196
28.7068042755 27.7503967285 -0.229588001966
33.1257286072 23.285900116 -0.227411001921
36.786491394 18.1774501801 -0.226197004318
39.59192276 12.5478887558 -0.221707001328
41.4356307983 6.44545269012 -0.178241997957
42.1006889343 0.0 -0.147018998861
0.0 27.7062301636 4.76253890991
5.04653644562 27.3838806152 4.76209211349
9.71755886078 26.5900058746 4.76366424561
14.1920690536 25.1136054993 4.76513719559
18.3782539368 22.9589424133 4.76637220383
22.1724700928 20.1778144836 4.7674741745
25.4798202515 16.836315155 4.76836395264
28.2170658112 13.0164794922 4.76906394958
30.2973365784 8.81897735596 4.76933288574
31.5734596252 4.4153342247 4.76898002625
32.0004119873 0.0 4.77090501785
1.53977996337e-38 29.5890808105 4.76191806793
5.23239660263 29.3626670837 4.7625451088
10.194776535 28.5321788788 4.76392889023
14.9656515121 26.9575195312 4.76545000076
19.4306545258 24.6599559784 4.76679420471
23.478931427 21.6927146912 4.76797676086
27.0088443756 18.1268081665 4.76893997192
29.930688858 14.0496749878 4.76967287064
32.1613807678 9.56330394745 4.76999187469
33.5759048462 4.81747722626 4.76992082596
34.0593605042 -1.44661995991e-38 4.77114295959
1.24688994706e-38 31.5310497284 4.76196098328
5.40833377838 31.3521156311 4.76278305054
10.6737852097 30.4740428925 4.76417207718
15.7399177551 28.801361084 4.76576089859
20.4835262299 26.3605995178 4.76721286774
24.785615921 23.2070102692 4.76847791672
28.537858963 19.416727066 4.76951694489
31.6441612244 15.0820150375 4.77029085159
34.0195007324 10.3102245331 4.77065181732
35.5550003052 5.22906160355 4.77086877823
36.0914306641 -1.22577994621e-38 4.77163314819
0.0 33.5184898376 4.76142311096
5.59008836746 33.3452835083 4.76259708405
11.1523666382 32.415725708 4.7644071579
16.514591217 30.6454772949 4.76607179642
21.5364074707 28.0610752106 4.76763010025
26.0923366547 24.7211666107 4.76898002625
30.0667629242 20.7062282562 4.77009296417
33.3576774597 16.1137886047 4.77092313766
35.8762664795 11.0553379059 4.77131605148
37.5167694092 5.64166069031 4.7715921402
38.0984802246 0.0 4.77204418182
-1.29141998927e-38 35.5191612244 4.76226997375
5.77833461761 35.3447189331 4.76274299622
11.629488945 34.3575668335 4.76461219788
17.2892074585 32.4898414612 4.7663898468
22.5890254974 29.7616386414 4.76804494858
27.39884758 26.2353553772 4.76948785782
31.5953903198 21.9957084656 4.77065896988
35.0709114075 17.1451225281 4.77157115936
37.7317199707 11.8011980057 4.77198600769
39.4673728943 6.05116128922 4.77213287354
40.0868492126 0.0 4.77282619476
0.0 37.5 4.76236009598
5.9688334465 37.359992981 4.76286888123
12.1067237854 36.298374176 4.76481723785
18.0628643036 34.3351745605 4.76670789719
23.6413516998 31.4620456696 4.76846313477
28.7049331665 27.7499542236 4.76999998093
33.1234512329 23.2852325439 4.77122688293
36.7838134766 18.1766738892 4.77223110199
39.5862922668 12.5461826324 4.7727689743
41.407661438 6.44990348816 4.77247810364
42.0565719604 0.0 4.77397918701
0.0 27.6425590515 9.54871845245
5.02540874481 27.3711624146 9.73092460632
9.71600818634 26.5882358551 9.76228809357
14.190196991 25.1133365631 9.76433372498
18.3763504028 22.9589424133 9.76683330536
22.1709346771 20.1779956818 9.76863384247
25.4785804749 16.8365879059 9.77029705048
28.2170352936 13.017624855 9.77243518829
30.2996864319 8.82779788971 9.78675460815
31.5984191895 4.44916725159 9.86443519592
32.0536994934 0.0 9.90766048431
0.0 29.5087089539 9.61747360229
5.21464776993 29.3496379852 9.74447536469
10.1930074692 28.5303001404 9.76345539093
14.9636459351 26.9571781158 9.76484012604
19.4288082123 24.6599464417 9.76721286774
23.4774341583 21.6929397583 9.76883411407
27.0076236725 18.1271572113 9.7703962326
29.9304199219 14.051027298 9.77165317535
32.1640281677 9.57122898102 9.78073120117
33.6041145325 4.84917640686 9.8333978653
34.1134490967 0.0 9.86458301544
0.0 31.4364700317 9.71675300598
5.40401124954 31.3359947205 9.75949192047
10.6715974808 30.472661972 9.76404190063
15.7380046844 28.8008518219 9.76569843292
20.4818592072 26.3605308533 9.76747894287
24.7842102051 23.2072143555 9.76891517639
28.5367984772 19.4170341492 9.77025318146
31.6437225342 15.0830793381 9.77114677429
34.0227127075 10.314245224 9.77474403381
35.5826034546 5.24888658524 9.79583644867
36.1438713074 0.0 9.81119060516
0.0 33.4158401489 9.81291484833
5.59080934525 33.3271102905 9.77188682556
11.1499404907 32.4149055481 9.76430606842
16.512714386 30.6449069977 9.76665973663
21.5349636078 28.0609149933 9.76769733429
26.090965271 24.7212619781 9.76901721954
30.0657730103 20.7065029144 9.77006721497
33.3571777344 16.1142177582 9.77073764801
35.8793067932 11.0579471588 9.77161121368
37.5454864502 5.6465716362 9.77040958405
38.1501197815 0.0 9.76842498779
0.0 35.4312095642 9.93520069122
5.80152463913 35.3264579773 9.79047775269
11.6266851425 34.3570899963 9.7637720108
17.2873535156 32.4893989563 9.76774501801
22.5877666473 29.7613754272 9.76784706116
27.3974647522 26.2353439331 9.76923465729
31.5943584442 21.9958457947 9.76986789703
35.0703010559 17.1454429626 9.77063179016
37.73487854 11.801607132 9.76877117157
39.4947128296 6.04851150513 9.74518108368
40.1313896179 0.0 9.72583580017
0.0 37.5 10.0078268051
5.99723434448 37.3356246948 9.80417251587
12.1032562256 36.2985343933 9.763712883
18.061170578 34.3348236084 9.76848316193
23.6401119232 31.4617557526 9.76807498932
28.7035102844 27.7498970032 9.7695646286
33.1223678589 23.2853145599 9.76991271973
36.7830238342 18.177230835 9.77058792114
39.588924408 12.5455217361 9.76650047302
41.4329986572 6.44667339325 9.72493553162
42.0961914062 0.0 9.69299125671
CELLS 100 900
8 0 1 12 11 66 67 78 77 
8 1 2 13 12 67 68 79 78 
8 2 3 14 13 68 69 80 79 
8 3 4 15 14 69 70 81 80 
8 4 5 16 15 70 71 82 81 
8 5 6 17 16 71 72 83 82 
8 6 7 18 17 72 73 84 83 
8 7 8 19 18 73 74 85 84 
8 8 9 20 19 74 75 86 85 
8 9 10 21 20 75 76 87 86 
8 11 12 23 22 77 78 89 88 
8 12 13 24 23 78 79 90 89 
8 13 14 25 24 79 80 91 90 
8 14 15 26 25 80 81 92 91 
8 15 16 27 26 81 82 93 92 
8 16 17 28 27 82 83 94 93 
8 17 18 29 28 83 84 95 94 
8 18 19 30 29 84 85 96 95 
8 19 20 31 30 85 86 97 96 
8 20 21 32 31 86 87 98 97 
8 22 23 34 33 88 89 100 99 
8 23 24 35 34 89 90 101 100 
8 24 25 36 35 90 91 102 101 
8 25 26 37 36 91 92 103 102 
8 26 27 38 37 92 93 104 103 
8 27 28 39 38 93 94 105 104 
8 28 29 40 39 94 95 106 105 
8 29 30 41 40 95 96 107 106 
8 30 31 42 41 96 97 108 107 
8 31 32 43 42 97 98 109 108 
8 33 34 45 44 99 100 111 110 
8 34 35 46 45 100 101 112 111 
8 35 36 47 46 101 102 113 112 
8 36 37 48 47 102 103 114 113 
8 37 38 49 48 103 104 115 114 
8 38 39 50 49 104 105 116 115 
8 39 40 51 50 105 106 117 116 
8 40 41 52 51 106 107 118 117 
8 41 42 53 52 107 108 119 118 
8 42 43 54 53 108 109 120 119 
8 44 45 56 55 110 111 122 121 
8 45 46 57 56 111 112 123 122 
8 46 47 58 57 112 113 124 123 
8 47 48 59 58 113 114 125 124 
8 48 49 60 59 114 115 126 125 
8 49 50 61 60 115 116 127 126 
8 50 51 62 61 116 117 128 127 
8 51 52 63 62 117 118 129 128 
8 52 53 64 63 118 119 130 129 
8 53 54 65 64 119 120 131 130 
8 66 67 78 77 132 133 144 143 
8 67 68 79 78 133 134 145 144 
8 68 69 80 79 134 135 146 145 
8 69 70 81 80 135 136 147 146 
8 70 71 82 81 136 137 148 147 
8 71 72 83 82 137 138 149 148 
8 72 73 84 83 138 139 150 149 
8 73 74 85 84 139 140 151 150 
8 74 75 86 85 140 141 152 151 
8 75 76 87 86 141 142 153 152 
8 77 78 89 88 143 144 155 154 
8 78 79 90 89 144 145 156 155 
8 79 80 91 90 145 146 157 156 
8 80 81 92 91 146 147 158 157 
8 81 82 93 92 147 148 159 158 
8 82 83 94 93 148 149 160 159 
8 83 84 95 94 149 150 161 160 
8 84 85 96 95 150 151 162 161 
8 85 86 97 96 151 152 163 162 
8 86 87 98 97 152 153 164 163 
8 88 89 100 99 154 155 166 165 
8 89 90 101 100 155 156 167 166 
8 90 91 102 101 156 157 168 167 
8 91 92 103 102 157 158 169 168 
8 92 93 104 103 158 159 170 169 
8 93 94 105 104 159 160 171 170 
8 94 95 106 105 160 161 172 171 
8 95 96 107 106 161 162 173 172 
8 96 97 108 107 162 163 174 173 
8 97 98 109 108 163 164 175 174 
8 99 100 111 110 165 166 177 176 
8 100 101 112 111 166 167 178 177 
8 101 102 113 112 167 168 179 178 
8 102 103 114 113 168 169 180 179 
8 103 104 115 114 169 170 181 180 
8 104 105 116 115 170 171 182 181 
8 105 106 117 116 171 172 183 182 
8 106 107 118 117 172 173 184 183 
8 107 108 119 118 173 174 185 184 
8 108 109 120 119 174 175 186 185 
8 110 111 122 121 176 177 188 187 
8 111 112 123 122 177 178 189 188 
8 112 113 124 123 178 179 190 189 
8 113 114 125 124 179 180 191 190 
8 114 115 126 125 180 181 192 191 
8 115 116 127 126 181 182 193 192 
8 116 117 128 127 182 183 194 193 
8 117 118 129 128 183 184 195 194 
8 118 119 130 129 184 185 196 195 
8 119 120 131 130 185 186 197 196 
CELL_TYPES 100
12
12
12
12
12
12
12
12
12
12
12
12
12
12
12
12
12
12
12
12
12
12
12
12
12
12
12
12
12
12
12
12
12
12
12
12
12
12
12
12
12
12
12
12
12
12
12
12
12
12
12
12
12
12
12
12
12
12
12
12
12
12
12
12
12
12
12
12
12
12
12
12
12
12
12
12
12
12
12
12
12
12
12
12
12
12
12
12
12
12
12
12
12
12
12
12
12
12
12
12
CELL_DATA 100
SCALARS Yield_Stress float 1
LOOKUP_TABLE default
0.00147012935486
0.00141662731767
0.00147012935486
0.00141662731767
0.00147012935486
0.00141662720125
0.00147012947127
0.00147012935486
0.00141662731767
0.00147012935486
0.00146525597665
0.00141662731767
0.00146525609307
0.00141662731767
0.00141449598595
0.00141662720125
0.0014124388108
0.00146525597665
0.00141662731767
0.00146525609307
0.00146071566269
0.00146071566269
0.00146071566269
0.00146071566269
0.00146071566269
0.00146071566269
0.0014124388108
0.00140852842014
0.00138009362854
0.00140852842014
0.00140486366581
0.00140486366581
0.0014564684825
0.0014564684825
0.0014048635494
0.0014048635494
0.0014564684825
0.00140852842014
0.00138009362854
0.00140852842014
0.00140486366581
0.00140486366581
0.00145248090848
0.00145248090848
0.0014048635494
0.0014048635494
0.00145248090848
0.00145248090848
0.00138009362854
0.00145248090848
0.00147012935486
0.00147012947127
0.00141662720125
0.00147012947127
0.00147012935486
0.00141662720125
0.00147012947127
0.00147012935486
0.00138741091359
0.00147012935486
0.00146525597665
0.0014124388108
0.00141662720125
0.00146525609307
0.00141449598595
0.00141662720125
0.0014124388108
0.00146525597665
0.00138741091359
0.00146525609307
0.00138009362854
0.0014124388108
0.00146071566269
0.00140852842014
0.00140852842014
0.00140852842014
0.0014124388108
0.00138009351213
0.00138741091359
0.00146071566269
0.00138009362854
0.00140486366581
0.0014564684825
0.00140852842014
0.00140852842014
0.00140852842014
0.00140486366581
0.00138009351213
0.00140486366581
0.00145646836609
0.00138009362854
0.00140486366581
0.00145248090848
0.00145248090848
0.00145248090848
0.00145248090848
0.00140486366581
0.00138009351213
0.00140486366581
0.00145248090848
POINT_DATA 198
SCALARS Von_Mises_Stress float 1
LOOKUP_TABLE default
0.00160170521121
0.0014474100899
0.00106253440026
0.000499981804751
0.000354743562639
0.000969947432168
0.00144413183443
0.00151955347974
0.00160161056556
0.00154871982522
0.00158707483206
0.00166149775032
0.00143463816494
0.00103940721601
0.000486945122248
0.000406563980505
0.000669473200105
0.00106177548878
0.00151854229625
0.00160526996478
0.00148253154475
0.00160676799715
0.00181028561201
0.00166060891934
0.00143251428381
0.0005410805461
0.000493634492159
0.000487734796479
0.000619260186795
0.00109548820183
0.00188239465933
0.00127959507518
0.00182709738147
0.00162208802067
0.00198395201005
0.00108991551679
0.000580346619245
0.000400402088417
0.000354238785803
0.000344769418007
0.000402363744797
0.00121744628996
0.000424459780334
0.00203271326609
0.00158770394046
0.0014126674505
0.000750223000068
0.000567133480217
0.000209286998142
0.000291773321806
0.000580916705076
0.000993988127448
0.00127316359431
0.00115435256157
0.00156304053962
0.00157814135309
0.00139716709964
0.000707180704921
0.000673854025081
0.000135454421979
0.000411681452533
0.000973075919319
0.00124886934645
0.00132672174368
0.001327523496
0.00153715303168
0.00163386773784
0.0015141434269
0.00115180260036
0.000566903268918
0.00031393734389
0.000960854871664
0.00142549409065
0.00145175366197
0.00150568492245
0.00154086609837
0.00157371675596
0.00166398345027
0.00140150566585
0.00107179337647
0.000421743578045
0.000328015681589
0.000637023011222
0.000996700138785
0.00135109899566
0.00145882228389
0.00151437183376
0.00159871322103
0.00189699081238
0.0015777106164
0.000487798592076
0.000384026148822
0.000366729480447
0.000420847063651
0.000509750272613
0.000829610915389
0.00146922981367
0.00148779782467
0.00193129887339
0.00199562963098
0.00149904144928
0.000987358740531
0.000499844376463
0.000272796256468
0.000277661281871
0.000235713639995
0.000124561294797
0.000859670341015
0.000212288287003
0.00227792211808
0.00162129849195
0.00137546111364
0.000719565432519
0.000572154531255
0.000129032370751
0.000265184207819
0.000530964171048
0.000824638351332
0.0011388316052
0.00124462554231
0.0016109974822
0.00157399068121
0.00144621043
0.00069702725159
0.000770774611738
0.000107813357317
0.0004137106298
0.000938203476835
0.001168266288
0.00125452876091
0.00135690590832
0.00153791625053
0.00160659768153
0.00145888875704
0.00111570826266
0.000540013425052
0.000345518201357
0.000959315453656
0.00144252413884
0.00152058049571
0.0015872574877
0.00153222423978
0.00158513849601
0.00166487449314
0.00143988209311
0.00106710346881
0.000496687949635
0.000399318203563
0.000657878059428
0.0010511482833
0.00150298909284
0.00159186287783
0.00146613817196
0.0016042497009
0.0017551635392
0.00163396191783
0.00144518027082
0.000538119580597
0.000487445649924
0.000476123328554
0.000600600498728
0.00106238585431
0.00187187863048
0.00129084428772
0.00185253983364
0.00158201018348
0.00190563721117
0.00105765392072
0.0005776482285
0.000394536094973
0.000346786691807
0.000337256322382
0.00037680612877
0.00129220972303
0.000444609671831
0.00210961932316
0.00155813479796
0.00139906362165
0.000759504677262
0.000571666576434
0.000204729323741
0.000290165917249
0.000585245899856
0.00102425599471
0.00121303589549
0.00116814672947
0.00159152119886
0.00155452650506
0.0013813721016
0.000721459451597
0.000682162703015
0.000129292093334
0.000417610979639
0.000948592030909
0.00120328378398
0.00127797736786
0.00133375066798
0.00153875548858
