# vtk DataFile Version 2.0
Unstructured Grid Example
ASCII
DATASET UNSTRUCTURED_GRID
POINTS 27 float
0.0 0.0 0.0
0.476803809404 2.76837995549e-36 -2.11521999915e-08
0.953607678413 0.0 -4.90676015374e-08
-6.98475011163e-09 0.550000071526 -7.7910398133e-09
0.476803809404 0.550000071526 -1.97415008785e-08
0.953607678413 0.550000011921 -3.16064010519e-08
-1.44603999885e-08 1.10000002384 -1.52625005967e-08
0.476803898811 1.10000002384 -1.83449007096e-08
0.953607678413 1.10000002384 -1.42346001653e-08
3.69410990686e-09 2.76836991098e-36 0.476803809404
0.476803809404 8.30358978373e-36 0.476803809404
0.953607678413 2.76837995549e-36 0.476803809404
4.9693098525e-09 0.550000071526 0.476803809404
0.476803898811 0.550000011921 0.476803809404
0.953607678413 0.549999892712 0.476803809404
6.20585982603e-09 1.10000002384 0.476803898811
0.476803898811 1.10000002384 0.476803898811
0.953607678413 1.10000002384 0.476803898811
0.0 0.0 0.953607678413
0.476803809404 2.76837995549e-36 0.953607678413
0.953607678413 0.0 0.953607678413
1.68494000974e-08 0.550000011921 0.953607678413
0.476803898811 0.549999892712 0.953607678413
0.953607678413 0.549999892712 0.953607678413
3.42237989059e-08 1.10000002384 0.953607678413
0.476803898811 1.10000002384 0.953607678413
0.953607678413 1.10000002384 0.953607678413
CELLS 8 72
8 0 1 4 3 9 10 13 12 
8 1 2 5 4 10 11 14 13 
8 3 4 7 6 12 13 16 15 
8 4 5 8 7 13 14 17 16 
8 9 10 13 12 18 19 22 21 
8 10 11 14 13 19 20 23 22 
8 12 13 16 15 21 22 25 24 
8 13 14 17 16 22 23 26 25 
CELL_TYPES 8
12
12
12
12
12
12
12
12
CELL_DATA 8
SCALARS Yield_Stress float 1
LOOKUP_TABLE default
0.00213112286292
0.00226964242756
0.00226964242756
0.00226964242756
0.00213112286292
0.00226964242756
0.00213112286292
0.00213112286292
POINT_DATA 27
SCALARS Von_Mises_Stress float 1
LOOKUP_TABLE default
48.6951141357
48.6951560974
48.6952056885
48.695098877
48.6951255798
48.6952056885
48.6950798035
48.6950912476
48.6952056885
48.6950569153
48.695098877
48.6950912476
48.6950759888
48.6951026917
48.6951255798
48.6950454712
48.695098877
48.6951560974
48.6949996948
48.6950454712
48.6950798035
48.6949996948
48.6950454712
48.695098877
48.6949996948
48.6951065063
48.6951141357
