# vtk DataFile Version 2.0
Unstructured Grid Example
ASCII
DATASET UNSTRUCTURED_GRID
POINTS 2646 float
0.0 0.0 0.0
0.04871571064 0.0 -0.00594375981018
0.0977313444018 0.0 -0.0120270997286
0.147030070424 0.0 -0.0180617999285
0.196641072631 0.0 -0.0239738002419
0.246696919203 0.0 -0.0294218994677
0.297319203615 0.0 -0.0335123986006
0.347077667713 0.0 -0.0347303003073
0.394190937281 0.0 -0.0330112017691
0.436357289553 0.0 -0.028509799391
0.472569406033 0.0 -0.0230014007539
0.50344991684 0.0 -0.0173880998045
0.530127227306 0.0 -0.0122948996723
0.553588569164 0.0 -0.00742202019319
0.573408961296 0.0 -0.00450748996809
0.593141019344 0.0 -0.00481694983318
0.615262985229 0.0 -0.00321148009971
0.63325804472 0.0 0.00220201001503
0.644901990891 0.0 0.00465625012293
0.655851960182 0.0 0.00256909010932
0.669458985329 0.0 0.0
0.000443230004748 0.0522618591785 -7.57244997658e-05
0.0491263009608 0.0516911298037 -0.00590453017503
0.0981181189418 0.0513316616416 -0.0118677001446
0.147375300527 0.0511323213577 -0.0177088007331
0.196846574545 0.0510282218456 -0.023347100243
0.2464582026 0.0514453202486 -0.0282553993165
0.295827835798 0.0539774000645 -0.0312733985484
0.343861490488 0.0604194030166 -0.0313587002456
0.38718521595 0.0726124048233 -0.0275612007827
0.4236548841 0.0898680016398 -0.0225677005947
0.454221606255 0.112437203526 -0.0181719996035
0.481056421995 0.140343993902 -0.0156475007534
0.507094442844 0.167058005929 -0.0151485996321
0.534304976463 0.189015001059 -0.0168421994895
0.564604997635 0.206211999059 -0.0187433995306
0.594951987267 0.221379995346 -0.0187114998698
0.621854007244 0.245939999819 -0.021162699908
0.649676024914 0.270747005939 -0.0285305995494
0.680442988873 0.27930700779 -0.034844700247
0.7107629776 0.280059993267 -0.038844499737
0.737846970558 0.273357003927 -0.0410197004676
0.00211686990224 0.105168312788 -3.33641983161e-05
0.0504891313612 0.10395476222 -0.00540763977915
0.0993472859263 0.103560037911 -0.0108792996034
0.148488432169 0.103953324258 -0.0156583990902
0.197432041168 0.105681270361 -0.0190724991262
0.2450478971 0.109463363886 -0.0207516998053
0.29035076499 0.115984603763 -0.0207678005099
0.330917686224 0.129436805844 -0.0173566006124
0.362951308489 0.155657500029 -0.0107113001868
0.389393985271 0.187555700541 -0.00661372020841
0.414140403271 0.221087008715 -0.00613251002505
0.439076006413 0.253553003073 -0.00905452016741
0.467049002647 0.2811819911 -0.01515940018
0.500618994236 0.299273014069 -0.0211954992265
0.53398001194 0.317054003477 -0.0261375997216
0.565376996994 0.337994992733 -0.0334368981421
0.599133014679 0.355538994074 -0.0442807003856
0.638455986977 0.365745007992 -0.0555668994784
0.681631982327 0.37046700716 -0.0644949004054
0.725700974464 0.37020200491 -0.0707852989435
0.768975973129 0.366104990244 -0.0760300010443
0.00582571979612 0.160150706768 0.00115647003986
0.0532035492361 0.158486187458 -0.00287906988524
0.101211212575 0.159095719457 -0.00672204978764
0.149006426334 0.161928609014 -0.00871419999748
0.195031613111 0.168102607131 -0.00795917026699
0.237226203084 0.178909212351 -0.00403635017574
0.273002326488 0.195631712675 0.00234353006817
0.300411492586 0.223393604159 0.00799310021102
0.323443502188 0.259939014912 0.00940342992544
0.346167981625 0.299956023693 0.00673634000123
0.371872007847 0.333577990532 0.000338082987582
0.402256011963 0.358363002539 -0.00875863991678
0.437627017498 0.375131011009 -0.0170831996948
0.473201990128 0.392212986946 -0.0243864003569
0.508567988873 0.408528000116 -0.0337894000113
0.547161996365 0.420579999685 -0.0453088991344
0.590309023857 0.428180992603 -0.0559299997985
0.635809004307 0.431562006474 -0.064351901412
0.682217955589 0.432516008615 -0.0714346021414
0.729040980339 0.431446015835 -0.0775154978037
0.775220036507 0.428387016058 -0.083172403276
0.0117159998044 0.220163300633 0.00706775998697
0.0565972514451 0.218942597508 0.00543294008821
0.101282864809 0.222985208035 0.00581954978406
0.142974495888 0.231994703412 0.00976798031479
0.17911529541 0.247227206826 0.0160032995045
0.208692908287 0.27088201046 0.0217367000878
0.232547909021 0.304769009352 0.0240586008877
0.254824191332 0.343768000603 0.0210152994841
0.278876006603 0.379890024662 0.0141297001392
0.306154966354 0.410510003567 0.00478768022731
0.338611006737 0.433921992779 -0.0056511699222
0.37605202198 0.448063015938 -0.0147991003469
0.41459402442 0.459325015545 -0.0233343001455
0.453802973032 0.471432983875 -0.0337270013988
0.496312975883 0.480571985245 -0.0447967015207
0.541804015636 0.485659003258 -0.0540959015489
0.588546037674 0.488251984119 -0.0619666986167
0.636139988899 0.489338994026 -0.0690137967467
0.684121966362 0.488978028297 -0.0752371996641
0.731943011284 0.487516999245 -0.080908998847
0.779448986053 0.484960019588 -0.0865456983447
0.0164703000337 0.292236596346 0.0255346000195
0.0535361096263 0.296997398138 0.0273745004088
0.0863604024053 0.31035938859 0.0321743004024
0.113994508982 0.333086907864 0.0360702984035
0.137409105897 0.363696008921 0.0367266982794
0.159287497401 0.398517012596 0.0330877006054
0.182993009686 0.43135201931 0.0259454995394
0.210296988487 0.457814991474 0.0165708996356
0.241538003087 0.480134010315 0.00535504985601
0.277088999748 0.499544978142 -0.00631278008223
0.316910982132 0.513211011887 -0.0164084993303
0.358584016562 0.523584008217 -0.0252375006676
0.401276022196 0.531444013119 -0.0339679010212
0.44600597024 0.53676199913 -0.0429656989872
0.492694973946 0.540333032608 -0.0512685999274
0.54045599699 0.54261803627 -0.0587463006377
0.58883202076 0.543588042259 -0.0654817968607
0.637435019016 0.543529033661 -0.0716136023402
0.686088979244 0.54281103611 -0.0773553028703
0.73456299305 0.541462004185 -0.0828038975596
0.782532989979 0.539370000362 -0.0882802978158
-0.0098968995735 0.404310017824 0.0456110015512
0.0148123018444 0.418631017208 0.0445800982416
0.0372525006533 0.439680993557 0.0429222993553
0.0597930029035 0.464520007372 0.0385545007885
0.0844280049205 0.490180015564 0.0318313017488
0.1124420017 0.51373898983 0.0235566999763
0.144060015678 0.534031033516 0.0141495997086
0.179765000939 0.549686014652 0.00444056978449
0.218742012978 0.560997009277 -0.00512957014143
0.260273993015 0.570774018764 -0.0149304997176
0.303822994232 0.57950001955 -0.0242544002831
0.348859012127 0.586540997028 -0.0331845991313
0.395650029182 0.591536045074 -0.0414200015366
0.443485975266 0.594194054604 -0.0485065989196
0.491806983948 0.595543026924 -0.0550853982568
0.540614008904 0.596238970757 -0.0614099986851
0.58966499567 0.596346974373 -0.0673813000321
0.638752043247 0.595993041992 -0.0730801969767
0.687741994858 0.595216989517 -0.0785908997059
0.736557006836 0.594205021858 -0.0840208008885
0.785161018372 0.592622041702 -0.0895021036267
-0.0778281018138 0.521991014481 0.0422478988767
-0.0484932027757 0.537055969238 0.0385853983462
-0.0186019986868 0.553496956825 0.0341630987823
0.0126710087061 0.570464968681 0.0282272994518
0.0461720079184 0.586521983147 0.0209672003984
0.0821759998798 0.601287007332 0.0126170003787
0.121257007122 0.612918019295 0.0038989901077
0.163054987788 0.621793985367 -0.00470313988626
0.206778004766 0.6287150383 -0.0127707002684
0.251513004303 0.633767962456 -0.020571000874
0.297351002693 0.638903021812 -0.0289245992899
0.344778001308 0.643131017685 -0.0370083004236
0.393232017756 0.645838022232 -0.0443386994302
0.442337989807 0.647383987904 -0.0509655997157
0.491687983274 0.647935986519 -0.0569912008941
0.541041016579 0.647994995117 -0.0627273991704
0.590407013893 0.647827029228 -0.0683756023645
0.639761030674 0.647419989109 -0.0739168003201
0.68900001049 0.646860957146 -0.0793733000755
0.738119959831 0.645967006683 -0.0847496017814
0.787091970444 0.644654989243 -0.090110398829
-0.122978001833 0.614383995533 0.0389006994665
-0.0883660018444 0.627547979355 0.0336352996528
-0.0525990054011 0.640335023403 0.0278064999729
-0.0154189914465 0.652418971062 0.0211199000478
0.0236440002918 0.663145005703 0.0135596999899
0.0650739967823 0.671979010105 0.00541399000213
0.108761012554 0.67895501852 -0.00258226995356
0.15388199687 0.684337973595 -0.0101600000635
0.199979007244 0.68859398365 -0.0175873991102
0.246971994638 0.691951036453 -0.0248846001923
0.29474401474 0.694434046745 -0.0320128984749
0.343327015638 0.69651901722 -0.0389842987061
0.392525017262 0.697802007198 -0.0455293990672
0.442002981901 0.698422014713 -0.0516920983791
0.491623997688 0.698693037033 -0.0575865991414
0.541270017624 0.698714971542 -0.0632994025946
0.590876996517 0.698539972305 -0.0688904970884
0.640398025513 0.698255002499 -0.0744049027562
0.689863979816 0.69782602787 -0.0798548981547
0.739224970341 0.697122991085 -0.0851773023605
0.788316011429 0.696231007576 -0.0904755964875
-0.152264997363 0.692602992058 0.0363501012325
-0.113716006279 0.703616023064 0.0301141999662
-0.073890991509 0.713354945183 0.0234228000045
-0.0325529873371 0.721819996834 0.016170900315
0.0106340050697 0.72877395153 0.00855858996511
0.0555430054665 0.734019994736 0.000996790011413
0.101625010371 0.738291978836 -0.00643819011748
0.148667991161 0.741742968559 -0.0136863999069
0.196467012167 0.744268000126 -0.020650299266
0.244871988893 0.746120989323 -0.0273659005761
0.293758004904 0.74733299017 -0.0337826013565
0.342953026295 0.748134970665 -0.0400139987469
0.392429023981 0.748623013496 -0.0460667982697
0.442040979862 0.748847007751 -0.0519406013191
0.491697967052 0.748898029327 -0.0577035993338
0.541378974915 0.748869001865 -0.0633997991681
0.591051995754 0.748803973198 -0.0690468996763
0.64070302248 0.748656988144 -0.0746335983276
0.690304994583 0.748359978199 -0.0801308006048
0.739780008793 0.747969031334 -0.0855548977852
0.789111018181 0.747437953949 -0.0909975990653
-0.171854004264 0.762881994247 0.0333059988916
-0.130203008652 0.771193027496 0.0266754999757
-0.0871599987149 0.778176009655 0.01959490031
-0.0426929891109 0.783748984337 0.0123341996223
0.00321801006794 0.787958979607 0.00503339013085
0.0501579940319 0.791240990162 -0.00209667999297
0.0978420078754 0.793802976608 -0.00905140955001
0.146145001054 0.795758962631 -0.015797900036
0.194951012731 0.797150969505 -0.0222907997668
0.244087994099 0.798030018806 -0.0285170003772
0.293430000544 0.798575997353 -0.0345588997006
0.3429210186 0.798838019371 -0.0404600016773
0.392500042915 0.798964977264 -0.0462707988918
0.442146956921 0.799014985561 -0.0520225018263
0.49181497097 0.799005031586 -0.0577206984162
0.541473031044 0.798976004124 -0.0633969008923
0.591134011745 0.798913955688 -0.0690677016973
0.640806019306 0.798825025558 -0.0747146010399
0.690454006195 0.798699975014 -0.080318197608
0.740049004555 0.798483014107 -0.0858685970306
0.789548993111 0.798166036606 -0.0914122015238
-0.184793993831 0.826757013798 0.0298890005797
-0.140573009849 0.832992017269 0.0232434999198
-0.0951699987054 0.837640047073 0.0162484999746
-0.0484259873629 0.840929031372 0.00923363957554
-0.000797003507614 0.843451023102 0.00239868997596
0.0474060028791 0.845389008522 -0.00424287002534
0.0960780084133 0.846831023693 -0.0107215000317
0.145114988089 0.847841024399 -0.0170009993017
0.194403007627 0.848502993584 -0.0230995006859
0.243853986263 0.848901033401 -0.0290514007211
0.293406993151 0.849092006683 -0.0348812006414
0.343004018068 0.849156022072 -0.0406294986606
0.392619013786 0.84914702177 -0.0463417991996
0.442255973816 0.849119007587 -0.0520369000733
0.491903990507 0.849102973938 -0.0577214993536
0.541558027267 0.849070012569 -0.0633995011449
0.591212034225 0.849016010761 -0.0690710023046
0.640863060951 0.84894400835 -0.074740499258
0.690521001816 0.848866999149 -0.0804006010294
0.740168988705 0.84876203537 -0.0860289037228
0.789759993553 0.848610043526 -0.0916483029723
-0.192843005061 0.887012004852 0.0262416992337
-0.146924003959 0.890884041786 0.0200868993998
-0.0995040014386 0.893326044083 0.013440400362
-0.0513329952955 0.895174026489 0.0069831898436
-0.00275500118732 0.896609067917 0.000664261984639
0.0461699962616 0.897662997246 -0.00554597005248
0.095362007618 0.898369014263 -0.0116349998862
0.144744992256 0.898843050003 -0.0176136996597
0.194254010916 0.899134993553 -0.0234916005284
0.243838980794 0.899276018143 -0.0292828995734
0.293460994959 0.899325013161 -0.0350129008293
0.343098014593 0.899319052696 -0.0407043993473
0.392731010914 0.899283051491 -0.0463735982776
0.442353963852 0.899241030216 -0.0520430989563
0.491985976696 0.899201989174 -0.05772279948
0.541630983353 0.899164021015 -0.0634030997753
0.591279983521 0.899118065834 -0.0690793991089
0.640930056572 0.89906001091 -0.0747528001666
0.690577983856 0.898992061615 -0.0804224014282
0.740224957466 0.898923993111 -0.0860864967108
0.789858996868 0.898851037025 -0.0917475000024
-0.19837500155 0.943529963493 0.0234421007335
-0.15015900135 0.945442974567 0.0176094993949
-0.101578004658 0.946645975113 0.0116170998663
-0.0527429878712 0.947657942772 0.00563509017229
-0.00364299118519 0.948365986347 -0.000341473991284
0.0456649959087 0.948843955994 -0.00626379996538
0.0951190143824 0.949145972729 -0.0121208000928
0.144657999277 0.949329018593 -0.017919100821
0.194257006049 0.949424982071 -0.0236689001322
0.243886992335 0.949458003044 -0.0293796993792
0.293529987335 0.949451982975 -0.0350639000535
0.34317201376 0.949427962303 -0.040732100606
0.392805039883 0.94939494133 -0.0463965013623
0.442433983088 0.949353933334 -0.0520632006228
0.492063999176 0.949306964874 -0.0577341988683
0.541700005531 0.949265003204 -0.0634120032191
0.591345012188 0.949221014977 -0.0690895020962
0.640991032124 0.949170947075 -0.0747642964125
0.690636992455 0.949114978313 -0.0804368034005
0.7402780056 0.949055969715 -0.0861074030399
0.789916992188 0.948998987675 -0.0917783007026
-0.200749993324 0.996197998524 0.0226713996381
-0.151893004775 0.997557997704 0.0167238004506
-0.102763004601 0.998468995094 0.0107450000942
-0.0534599870443 0.998963952065 0.00490280985832
-0.00402399897575 0.999262988567 -0.000886655005161
0.045498996973 0.999426007271 -0.00663186004385
0.0950700193644 0.999521017075 -0.0123512996361
0.144674986601 0.99956703186 -0.0180524997413
0.194301009178 0.999576985836 -0.0237402003258
0.243941992521 0.999568998814 -0.0294166002423
0.293583989143 0.999549031258 -0.0350846014917
0.343223005533 0.999524950981 -0.0407506003976
0.392860025167 0.999495983124 -0.0464163012803
0.442494988441 0.999459028244 -0.0520821996033
0.492127984762 0.99941599369 -0.0577512010932
0.541761994362 0.999370992184 -0.063426502049
0.591405034065 0.999326944351 -0.0691025033593
0.641049027443 0.999282002449 -0.0747762992978
0.690690994263 0.999234974384 -0.0804492011666
0.740332007408 0.999184966087 -0.0861214026809
0.789968967438 0.999133944511 -0.0917939022183
-0.201872006059 1.04788100719 0.0223409999162
-0.152773007751 1.04863595963 0.0164377000183
-0.103376992047 1.04920399189 0.0104700000957
-0.0538039952517 1.04949092865 0.00463041989133
-0.00418399274349 1.04961895943 -0.0010997899808
0.0454449951649 1.04967999458 -0.00678305979818
0.0950740128756 1.04970300198 -0.0124489003792
0.144707992673 1.04970002174 -0.0181102994829
0.194345012307 1.04968297482 -0.0237709991634
0.243981987238 1.04965996742 -0.0294333007187
0.293621003628 1.04963994026 -0.0350985005498
0.343261003494 1.04961597919 -0.0407655015588
0.392901003361 1.04958999157 -0.0464342013001
0.442541956902 1.04955899715 -0.0521034002304
0.492181003094 1.04952299595 -0.0577724017203
0.541818022728 1.04947805405 -0.0634433031082
0.591458022594 1.04943501949 -0.0691159963608
0.64109903574 1.04939603806 -0.0747886002064
0.690739989281 1.04935503006 -0.0804611966014
0.740379989147 1.04931306839 -0.0861335992813
0.790017008781 1.04926896095 -0.0918069034815
-0.202480003238 1.09898602962 0.0219730995595
-0.153124004602 1.09931504726 0.0161716006696
-0.103576995432 1.09952604771 0.0103380996734
-0.0539229959249 1.09967207909 0.00456742988899
-0.00424599647522 1.09974598885 -0.00113724998664
0.0454189926386 1.09977805614 -0.00680712983012
0.09507201612 1.09978497028 -0.0124663002789
0.144719988108 1.09977698326 -0.0181242004037
0.194364011288 1.09976196289 -0.023783499375
0.244005993009 1.0997440815 -0.0294449999928
0.293648004532 1.09972298145 -0.0351102016866
0.343291014433 1.09970200062 -0.0407776981592
0.392934024334 1.09967708588 -0.046447198838
0.442577958107 1.09965002537 -0.0521175004542
0.492221981287 1.09961998463 -0.0577876009047
0.541863977909 1.09958600998 -0.0634568035603
0.591502010822 1.09954595566 -0.069127202034
0.641141057014 1.09950995445 -0.0747999027371
0.690781950951 1.0994759798 -0.0804722979665
0.740419983864 1.09944105148 -0.0861445963383
0.790057003498 1.09940505028 -0.0918184965849
-0.202807992697 1.14957809448 0.0216501001269
-0.153218001127 1.14966905117 0.0159579999745
-0.103594996035 1.14971709251 0.0102538000792
-0.0539419949055 1.14976799488 0.00455904984847
-0.0042710006237 1.14981198311 -0.00111969001591
0.0453960001469 1.14983797073 -0.00678869988769
0.0950580090284 1.14984607697 -0.0124538000673
0.144713997841 1.14983999729 -0.018117800355
0.194366008043 1.14982903004 -0.0237828008831
0.244015991688 1.14981400967 -0.0294490996748
0.293664991856 1.14979803562 -0.0351162999868
0.343313008547 1.14978003502 -0.0407846011221
0.392961025238 1.14976000786 -0.0464538000524
0.442607969046 1.14973902702 -0.0521236993372
0.492253005505 1.14971601963 -0.0577941983938
0.541896998882 1.14969098568 -0.063465103507
0.591538012028 1.14966106415 -0.0691353976727
0.641174018383 1.14962601662 -0.0748073980212
0.690811991692 1.14959597588 -0.0804814994335
0.740451991558 1.14956998825 -0.0861539021134
0.790087997913 1.14954304695 -0.0918274968863
-0.20289799571 1.19977092743 0.0215683002025
-0.153245002031 1.19981002808 0.0158980991691
-0.103594996035 1.19983994961 0.0102271996439
-0.0539419949055 1.1998540163 0.0045589399524
-0.00428299605846 1.19987392426 -0.00110841996502
0.0453809946775 1.19989097118 -0.00677652982995
0.0950450152159 1.19989800453 -0.0124447001144
0.144705995917 1.19989597797 -0.0181125998497
0.194365009665 1.19988894463 -0.0237805992365
0.244020983577 1.19987893105 -0.029448799789
0.293675005436 1.19986701012 -0.0351178012788
0.343327015638 1.19985496998 -0.0407872982323
0.392978012562 1.19984102249 -0.0464574992657
0.442627966404 1.1998269558 -0.0521280989051
0.492274999619 1.19981098175 -0.0577991008759
0.541921019554 1.19979500771 -0.0634702965617
0.591565012932 1.19977498055 -0.0691405981779
0.641203045845 1.19975197315 -0.0748104974627
0.690834999084 1.19971990585 -0.0804838985205
0.740469992161 1.19969797134 -0.0861592963338
0.790108978748 1.19968497753 -0.0918349996209
-0.202904999256 1.24989104271 0.0215735994279
-0.153261005878 1.24990594387 0.0159037001431
-0.103604994714 1.24992203712 0.010231600143
-0.0539469867945 1.24993097782 0.00456382986158
-0.00428800284863 1.24993801117 -0.00110253004823
0.0453740060329 1.24994492531 -0.00677037984133
0.0950370132923 1.24994897842 -0.0124393999577
0.144700989127 1.24994802475 -0.0181090999395
0.19436301291 1.24994492531 -0.0237789005041
0.244022995234 1.24993991852 -0.0294486992061
0.293680012226 1.24993395805 -0.0351186990738
0.343335032463 1.24992799759 -0.04078900069
0.392988026142 1.24992096424 -0.0464596003294
0.442638993263 1.24991393089 -0.0521305985749
0.49228900671 1.24990594387 -0.0578018985689
0.541936993599 1.24989795685 -0.0634732991457
0.591583013535 1.24988794327 -0.0691436007619
0.641225039959 1.24987697601 -0.07481200248
0.690859973431 1.24986195564 -0.0804791003466
0.740483999252 1.24983596802 -0.0861504003406
0.790111005306 1.24982404709 -0.0918262004852
-0.202912002802 1.29999995232 0.0215690005571
-0.153262004256 1.29999995232 0.0159028992057
-0.103609003127 1.29999995232 0.0102359000593
-0.0539509952068 1.29999995232 0.0045672301203
-0.00428999960423 1.29999995232 -0.0011006500572
0.0453709959984 1.29999995232 -0.00676866015419
0.0950350165367 1.29999995232 -0.0124380001798
0.144698992372 1.29999995232 -0.018108099699
0.19436301291 1.29999995232 -0.0237783007324
0.244023993611 1.29999995232 -0.0294486004859
0.293681979179 1.29999995232 -0.0351189002395
0.343338012695 1.29999995232 -0.040789399296
0.392991006374 1.29999995232 -0.046460300684
0.442642986774 1.29999995232 -0.0521313995123
0.492293000221 1.29999995232 -0.057802900672
0.541942000389 1.29999995232 -0.0634744018316
0.591589033604 1.29999995232 -0.0691448003054
0.641233026981 1.29999995232 -0.0748123973608
0.690871953964 1.29999995232 -0.0804765000939
0.740496993065 1.29999995232 -0.0861397013068
0.790100991726 1.29999995232 -0.091808103025
0.00464012986049 0.0 0.0389684997499
0.0533700212836 0.0 0.033190228045
0.102376319468 0.0 0.0272765979171
0.151604428887 0.0 0.0213588997722
0.201048359275 0.0 0.0155887994915
0.250682532787 0.0 0.0101066995412
0.300255954266 0.0 0.00511949881911
0.348467499018 0.0 0.00165360048413
0.393929064274 0.0 0.000662997364998
0.434432387352 0.0 0.00233310088515
0.46960580349 0.0 0.00449299812317
0.500650405884 0.0 0.00634310021996
0.527783632278 0.0 0.00838169828057
0.551913380623 0.0 0.0100729987025
0.572807967663 0.0 0.0102856997401
0.593580007553 0.0 0.00966879911721
0.615078032017 0.0 0.0108190998435
0.632312059402 0.0 0.0134286992252
0.644804000854 0.0 0.0141747985035
0.65600001812 0.0 0.012380098924
0.6690300107 0.0 0.0107661988586
0.00497093005106 0.0521659292281 0.0388837680221
0.0536827892065 0.0515598505735 0.0331868380308
0.102661408484 0.051063362509 0.0273379981518
0.151816770434 0.0507054813206 0.0214999988675
0.201065555215 0.0504716150463 0.015774698928
0.250231206417 0.0506879836321 0.0103578995913
0.298563599586 0.0525186099112 0.00595369935036
0.345084697008 0.0578760094941 0.00368459895253
0.387027919292 0.0695049017668 0.00410199910402
0.422681689262 0.0891382023692 0.00624179840088
0.453898310661 0.111851900816 0.00795919820666
0.481473326683 0.139558896422 0.00859690085053
0.507853746414 0.167584002018 0.00759229809046
0.535347998142 0.18995898962 0.00557269901037
0.565513014793 0.206744000316 0.00384249910712
0.595152020454 0.224610999227 0.00224959850311
0.622572004795 0.251774013042 -0.00148149952292
0.651939988136 0.275523006916 -0.00752700120211
0.683205008507 0.284050017595 -0.0129639022052
0.713774979115 0.285356014967 -0.0171268992126
0.741073966026 0.278800994158 -0.0197342000902
0.00613375985995 0.104533299804 0.038728389889
0.0546295195818 0.103293903172 0.0333466380835
0.103428833187 0.102523960173 0.0277050994337
0.15221093595 0.102282509208 0.0222713984549
0.200544953346 0.10299988091 0.017426898703
0.24739150703 0.105731844902 0.0137329995632
0.291884273291 0.111834198236 0.0119601991028
0.331858098507 0.125621199608 0.0128431990743
0.364080399275 0.152666509151 0.0160032995045
0.391395688057 0.185712993145 0.0175347998738
0.416400998831 0.221736997366 0.0169080998749
0.442239016294 0.254164993763 0.0140236988664
0.470700025558 0.281764000654 0.00947759859264
0.503608942032 0.301991015673 0.00442999973893
0.536597013474 0.321613013744 -0.000453200191259
0.56883597374 0.342721015215 -0.0069198012352
0.603870987892 0.359321981668 -0.0154637992382
0.643456041813 0.369722008705 -0.0238832980394
0.686422944069 0.373988986015 -0.0308334976435
0.730403006077 0.373739004135 -0.0364750996232
0.773831009865 0.369709998369 -0.0416997000575
0.00852860976011 0.157964169979 0.0390675067902
0.0562569014728 0.156224116683 0.0345166884363
0.104192569852 0.155998140574 0.0296072997153
0.151316925883 0.157703176141 0.0259964987636
0.19646653533 0.162760198116 0.0245928987861
0.238072097301 0.173185110092 0.0257677994668
0.274247616529 0.190661609173 0.0283989980817
0.302758395672 0.220022708178 0.0306691303849
0.32655620575 0.258605003357 0.0306877493858
0.349500000477 0.300339996815 0.0280927978456
0.37551599741 0.335307002068 0.0226901993155
0.406211018562 0.361245989799 0.0161330997944
0.441471040249 0.378630012274 0.00943079963326
0.477206975222 0.39550101757 0.00270199775696
0.513242959976 0.41224399209 -0.00508340075612
0.552600979805 0.424282997847 -0.0138204023242
0.595719993114 0.431298017502 -0.021795000881
0.640878021717 0.434143006802 -0.0288489982486
0.687066972256 0.434841006994 -0.0351314991713
0.733826994896 0.433560997248 -0.0407771989703
0.780176997185 0.430440992117 -0.0463996976614
0.0125040002167 0.21497990191 0.0423242487013
0.0579912811518 0.213788107038 0.0394785739481
0.102459900081 0.217437401414 0.037516258657
0.143622159958 0.226478502154 0.038521297276
0.179942697287 0.242761403322 0.0412981696427
0.210397794843 0.268150299788 0.0437346994877
0.234971210361 0.303883016109 0.0441396608949
0.258001804352 0.343689024448 0.0413938388228
0.282384008169 0.381358981133 0.0357280187309
0.309952974319 0.413560003042 0.0282001979649
0.342684000731 0.437070995569 0.0201714988798
0.380089014769 0.451798975468 0.0126123987138
0.419182002544 0.463403999805 0.00546829774976
0.459098994732 0.475180983543 -0.00238420069218
0.501855969429 0.483774006367 -0.0107457004488
0.547111034393 0.488294005394 -0.0184071026742
0.593626022339 0.490405976772 -0.0253034979105
0.641018033028 0.491030991077 -0.0316247045994
0.688799977303 0.490381002426 -0.0374883040786
0.736634016037 0.488794982433 -0.0429999008775
0.784151017666 0.486240029335 -0.0485706999898
0.017530599609 0.287037998438 0.0544639974833
0.0542511120439 0.292362809181 0.0539378970861
0.0871193036437 0.307301908731 0.0556224994361
0.115306206048 0.331653296947 0.0568017996848
0.139347597957 0.363815009594 0.0559273995459
0.16164919734 0.399924993515 0.0525906980038
0.186026006937 0.433771014214 0.0468911007047
0.214043989778 0.461470007896 0.0397154949605
0.245963007212 0.484081983566 0.0312835499644
0.281929969788 0.502838015556 0.0224249996245
0.321741998196 0.516799986362 0.0144075993448
0.363532006741 0.526897013187 0.00717709958553
0.406339019537 0.534726023674 -0.000245999544859
0.451218962669 0.539847016335 -0.00772440060973
0.497859984636 0.542780041695 -0.0147083997726
0.545462965965 0.544417023659 -0.0212310999632
0.593653023243 0.544888019562 -0.0273589044809
0.642085015774 0.544538974762 -0.0332024022937
0.690621972084 0.543637037277 -0.0388244017959
0.73904299736 0.542245030403 -0.0443262979388
0.7871530056 0.540189027786 -0.0499552041292
-0.00777393998578 0.404319018126 0.0675373971462
0.0165116004646 0.419339001179 0.0657009035349
0.0388742014766 0.441317021847 0.0637310966849
0.0619146078825 0.466877013445 0.0600397996604
0.0871750041842 0.493122011423 0.0547229982913
0.115891993046 0.51707303524 0.0482437498868
0.148219019175 0.537299990654 0.0410576090217
0.184354990721 0.553138971329 0.0334088802338
0.223769009113 0.564629018307 0.02572279796
0.265655994415 0.573934018612 0.0181592982262
0.309206008911 0.582342028618 0.0104500986636
0.354131013155 0.589297056198 0.00289579853415
0.400721013546 0.593716979027 -0.00423530116677
0.448359966278 0.595852971077 -0.0107569992542
0.496605992317 0.596855044365 -0.0168546997011
0.545340001583 0.597208023071 -0.0227285027504
0.59428602457 0.597078025341 -0.0284662023187
0.643272042274 0.596560001373 -0.0340834036469
0.692170977592 0.595736026764 -0.0396155044436
0.74099200964 0.594600021839 -0.0451015010476
0.789644002914 0.592918038368 -0.0506355985999
-0.0751347020268 0.523437976837 0.0682794004679
-0.0458253957331 0.538617014885 0.0646952018142
-0.0157539993525 0.555571973324 0.0607521012425
0.0159710049629 0.573103010654 0.0557233989239
0.0500800013542 0.58953499794 0.0496686585248
0.0866030007601 0.604408979416 0.042870759964
0.126010015607 0.616240978241 0.0357714295387
0.1679969877 0.624935984612 0.0286906994879
0.211841002107 0.631511986256 0.0217443984002
0.256743967533 0.636462986469 0.0148441996425
0.302632004023 0.641098976135 0.00768369808793
0.349922001362 0.644706010818 0.000664800405502
0.398208022118 0.646865963936 -0.00581780076027
0.447111964226 0.648021996021 -0.0118855014443
0.496309995651 0.648415982723 -0.0177204012871
0.545603990555 0.648406982422 -0.0234137028456
0.594929993153 0.648172974586 -0.0290272980928
0.644214987755 0.647750020027 -0.0345859974623
0.693412959576 0.647130012512 -0.0400850996375
0.742511987686 0.646151006222 -0.0455048009753
0.791435003281 0.644852995872 -0.0509278029203
-0.119309999049 0.616052031517 0.0684306994081
-0.0846700072289 0.629374980927 0.0636495947838
-0.0487700030208 0.642503976822 0.0585619993508
-0.0111589878798 0.654844045639 0.0527055002749
0.0283260047436 0.665760040283 0.0461918711662
0.0699910074472 0.674641013145 0.0392894335091
0.113734006882 0.681515991688 0.0323545485735
0.158886000514 0.686710000038 0.0256179980934
0.204998001456 0.690649032593 0.0190232992172
0.251977980137 0.693678975105 0.0124462991953
0.299772977829 0.695734977722 0.00600370019674
0.348271012306 0.697304010391 -0.000260401517153
0.397317022085 0.698256015778 -0.00633269920945
0.446692973375 0.698677003384 -0.0121995992959
0.49623298645 0.698835968971 -0.0179436020553
0.545810997486 0.698814034462 -0.023625202477
0.595360994339 0.69866502285 -0.0292607992887
0.64485001564 0.698405981064 -0.0348469018936
0.694270968437 0.697970032692 -0.0403494983912
0.743566989899 0.697306990623 -0.0457961037755
0.792639017105 0.696428000927 -0.0512529984117
-0.147926002741 0.694828987122 0.0684091970325
-0.109382003546 0.705675959587 0.0627589002252
-0.0693409964442 0.71550899744 0.0568609014153
-0.0277619957924 0.724087953568 0.0504882000387
0.0156010091305 0.730983972549 0.0437657609582
0.0605809986591 0.736091017723 0.0369958095253
0.106681019068 0.740108013153 0.0303424783051
0.153673991561 0.743256986141 0.0238198991865
0.2014079988 0.745499968529 0.0174490995705
0.249758988619 0.747007966042 0.0112696997821
0.298565983772 0.74792599678 0.0052346996963
0.347694993019 0.748494029045 -0.000687401741743
0.397107005119 0.748804986477 -0.00652020052075
0.446659982204 0.748924970627 -0.0122839026153
0.496277987957 0.748932003975 -0.0179935023189
0.545920968056 0.748901963234 -0.0236736014485
0.595559000969 0.748839020729 -0.02932959795
0.645176053047 0.74871301651 -0.0349569991231
0.694734990597 0.748476028442 -0.0405301004648
0.744187951088 0.748139023781 -0.0460501015186
0.793497979641 0.747618973255 -0.0515538975596
-0.167256996036 0.764819979668 0.0672158971429
-0.125445008278 0.773347020149 0.061288099736
-0.0823540017009 0.780369997025 0.0550501979887
-0.0377530008554 0.785753965378 0.048479359597
0.00823099911213 0.789749026299 0.0418793782592
0.0551590025425 0.792742013931 0.0353772081435
0.102798014879 0.795009016991 0.0289829988033
0.151041999459 0.796679973602 0.0227423999459
0.199770003557 0.797796964645 0.0166649986058
0.248826995492 0.798467040062 0.010728398338
0.298114001751 0.798846006393 0.00489569827914
0.347561001778 0.798985004425 -0.000873401761055
0.397109031677 0.799032986164 -0.00660590082407
0.446728974581 0.799036979675 -0.0123117007315
0.496369987726 0.799013972282 -0.0180008001626
0.546012997627 0.798981010914 -0.023679703474
0.595661997795 0.798923969269 -0.0293472036719
0.645310997963 0.798851013184 -0.0350019037724
0.694935977459 0.798759996891 -0.0406360030174
0.744520008564 0.798601031303 -0.0462383031845
0.794023036957 0.798314988613 -0.0518319010735
-0.180004999042 0.829339981079 0.0654748007655
-0.135926008224 0.835291028023 0.0594135969877
-0.0903180018067 0.839509010315 0.0530828014016
-0.0434909909964 0.842514038086 0.0467161610723
0.00411100685596 0.844738006592 0.0404318831861
0.0522830039263 0.846389055252 0.0342366583645
0.100904017687 0.847549021244 0.0281507000327
0.14987398684 0.848337054253 0.0221665985882
0.199101999402 0.848833024502 0.0162841994315
0.248502984643 0.849102973938 0.0104876998812
0.298016011715 0.849209010601 0.00474919751287
0.347587019205 0.849219024181 -0.000955902040005
0.397187024355 0.849174022675 -0.00664339959621
0.446812987328 0.849128007889 -0.0123251006007
0.496451973915 0.849105000496 -0.018003500998
0.54609900713 0.849071025848 -0.0236793011427
0.595746994019 0.849019050598 -0.0293541997671
0.645390987396 0.848958015442 -0.0350247994065
0.695034980774 0.848893046379 -0.0406858995557
0.744675993919 0.848811030388 -0.0463377982378
0.794277012348 0.848676025867 -0.0519876033068
-0.188810005784 0.889122009277 0.0628874972463
-0.142285004258 0.892701029778 0.057361099869
-0.0947099998593 0.894712030888 0.0514180995524
-0.0465449988842 0.896264016628 0.0454254075885
0.00201600790024 0.897423028946 0.0394644066691
0.0509089976549 0.898249030113 0.0335435792804
0.10006301105 0.898778021336 0.0276772994548
0.149406000972 0.899108052254 0.0218643993139
0.198878005147 0.899293065071 0.0161007996649
0.248432993889 0.899367034435 0.0103775989264
0.298032999039 0.899375021458 0.00468339771032
0.347653031349 0.899344027042 -0.000992402434349
0.397276043892 0.899296045303 -0.00666180253029
0.446897983551 0.899246037006 -0.0123330019414
0.496529996395 0.899203062057 -0.0180082991719
0.546172976494 0.899165987968 -0.0236856043339
0.595818996429 0.899121046066 -0.0293624997139
0.645465016365 0.899066030979 -0.0350384041667
0.695109009743 0.899006009102 -0.0407105013728
0.744753956795 0.898941040039 -0.0463773980737
0.794391036034 0.89887201786 -0.0520443022251
-0.193910002708 0.944234013557 0.0620149970055
-0.145630002022 0.946322977543 0.0562580004334
-0.0969269946218 0.947466015816 0.0504042990506
-0.0480739921331 0.948246002197 0.044661808759
0.00101600587368 0.948808968067 0.0389137007296
0.050306007266 0.949150979519 0.0331660099328
0.0997370183468 0.949350953102 0.0274310000241
0.149255990982 0.949454963207 0.021713398397
0.198837012053 0.949496984482 0.0160127989948
0.248449981213 0.949495971203 0.0103272981942
0.298079997301 0.94947296381 0.0046538002789
0.347712993622 0.949442982674 -0.00101330131292
0.397343039513 0.949405968189 -0.00667859986424
0.446972966194 0.949361979961 -0.0123464018106
0.496603965759 0.949312984943 -0.0180192999542
0.546240985394 0.949268937111 -0.0236961022019
0.595885038376 0.949224948883 -0.029373601079
0.645530045033 0.949175953865 -0.0350496992469
0.695172965527 0.949121952057 -0.0407240018249
0.744814991951 0.949064970016 -0.0463963001966
0.794453978539 0.949007987976 -0.0520685985684
-0.196145996451 0.996621012688 0.0617897994816
-0.147270008922 0.997861981392 0.0559730008245
-0.0981340035796 0.998750984669 0.0501047968864
-0.0488479882479 0.999220013618 0.0443549193442
0.000569000840187 0.999445974827 0.0386668890715
0.0500759929419 0.99956202507 0.0329890176654
0.0996390134096 0.999611973763 0.0273145996034
0.149235993624 0.999621987343 0.0216419994831
0.198855012655 0.999607980251 0.0159717984498
0.248486980796 0.999585986137 0.010303998366
0.298123002052 0.99956202507 0.00463739782572
0.347760021687 0.99953597784 -0.00102920085192
0.397397041321 0.999504983425 -0.0066967010498
0.447032988071 0.999467968941 -0.0123654007912
0.496666967869 0.999423980713 -0.0180363990366
0.546303033829 0.999377012253 -0.0237105041742
0.595945000648 0.999331951141 -0.0293866023421
0.645588040352 0.999287962914 -0.0350619032979
0.695230007172 0.999240994453 -0.040736399591
0.744870007038 0.999191999435 -0.0464102998376
0.794507026672 0.999140024185 -0.052083902061
-0.197255000472 1.04810702801 0.0615864992142
-0.148119002581 1.0488319397 0.0558462999761
-0.0987480059266 1.04932498932 0.0500406995416
-0.0492129921913 1.04957997799 0.0442835390568
0.000381007790565 1.04968905449 0.038592427969
0.0499950051308 1.04972398281 0.0329295583069
0.0996180176735 1.04973101616 0.0272723995149
0.149247989058 1.04971897602 0.0216143988073
0.198883011937 1.04969596863 0.0159537997097
0.24851898849 1.049669981 0.0102904997766
0.298157006502 1.04964804649 0.00462479889393
0.347797006369 1.04962301254 -0.00104290246964
0.397438019514 1.04959702492 -0.0067121013999
0.447078973055 1.04956698418 -0.0123823992908
0.496719002724 1.0495300293 -0.0180536024272
0.546357989311 1.04948496819 -0.0237260982394
0.595996975899 1.04944097996 -0.0293997973204
0.645637989044 1.04940104485 -0.0350740998983
0.69527900219 1.04936003685 -0.0407482981682
0.744917988777 1.04931795597 -0.0464226976037
0.79455602169 1.04927504063 -0.0520972013474
-0.19790199399 1.09915494919 0.0614243969321
-0.148528009653 1.0994540453 0.0557164996862
-0.0989769920707 1.09959805012 0.0499838888645
-0.0493509918451 1.09969604015 0.0442731976509
0.000303998589516 1.09975397587 0.0385896489024
0.0499580055475 1.09978294373 0.0329260677099
0.0996070057154 1.09978997707 0.0272687003016
0.149252995849 1.09978199005 0.0216096993536
0.198897004128 1.09976601601 0.0159476995468
0.248540982604 1.0997480154 0.0102832987905
0.298184007406 1.09972703457 0.00461649894714
0.347827017307 1.09970605373 -0.00105250254273
0.397472023964 1.09968101978 -0.00672280043364
0.447115957737 1.09965503216 -0.0123943015933
0.496759980917 1.09962499142 -0.0180663019419
0.546401977539 1.0995900631 -0.0237388983369
0.596041023731 1.09955096245 -0.0294115021825
0.645680010319 1.09951496124 -0.0350850000978
0.695320010185 1.0994809866 -0.0407593995333
0.744958996773 1.09944605827 -0.0464340001345
0.794596016407 1.09941005707 -0.0521085038781
-0.198272004724 1.14965009689 0.0613176971674
-0.148662999272 1.14972805977 0.0556380972266
-0.0990369990468 1.1497490406 0.0499508678913
-0.0493910014629 1.1497759819 0.0442743003368
0.000267997384071 1.14980900288 0.0386058092117
0.0499300062656 1.14983296394 0.032940980047
0.0995900183916 1.14984202385 0.0272771995515
0.149246990681 1.14983904362 0.0216129999608
0.198899999261 1.14982903004 0.015947598964
0.248550981283 1.14981508255 0.0102804992348
0.29820099473 1.1497989893 0.00461170077324
0.3478500247 1.14978206158 -0.00105829909444
0.397498011589 1.14976298809 -0.00672969967127
0.447144985199 1.14974200726 -0.0124017000198
0.496791005135 1.14971899986 -0.0180743001401
0.546434998512 1.14969301224 -0.0237471982837
0.596074998379 1.14966404438 -0.0294205993414
0.645713031292 1.14963006973 -0.0350942984223
0.695351958275 1.14960002899 -0.0407681018114
0.744991004467 1.14957404137 -0.0464432984591
0.794628024101 1.14954698086 -0.0521190986037
-0.19835999608 1.19977998734 0.0612929016352
-0.148706004024 1.19981896877 0.0556199997663
-0.0990549996495 1.19984400272 0.0499478690326
-0.0494039952755 1.1998540163 0.044281758368
0.00025300681591 1.19987094402 0.0386173799634
0.0499150007963 1.19988703728 0.0329521372914
0.0995780080557 1.19989395142 0.0272853001952
0.149239987135 1.19989395142 0.0216173995286
0.198899999261 1.19988799095 0.0159486997873
0.248556986451 1.19987893105 0.0102792996913
0.298210978508 1.19986796379 0.00460899993777
0.347864031792 1.19985604286 -0.001062002033
0.397515028715 1.19984292984 -0.00673380121589
0.447164982557 1.19982790947 -0.0124064013362
0.496812999249 1.19981300831 -0.0180795006454
0.546459019184 1.19979596138 -0.0237528979778
0.596101999283 1.19977593422 -0.0294262990355
0.645741045475 1.19975101948 -0.0351001992822
0.695374965668 1.19972193241 -0.040775001049
0.745011985302 1.1996999979 -0.0464491993189
0.794650018215 1.19968295097 -0.0521232038736
-0.198370993137 1.24989295006 0.0612870007753
-0.148726001382 1.24990594387 0.055621098727
-0.0990700051188 1.24992001057 0.0499549098313
-0.0494129955769 1.24992895126 0.0442891791463
0.000245004892349 1.24993598461 0.0386239476502
0.0499069988728 1.24994301796 0.0329573974013
0.0995720177889 1.24994695187 0.0272890999913
0.149235993624 1.24994695187 0.0216196998954
0.198899000883 1.24994492531 0.0159495994449
0.248558983207 1.24993991852 0.0102789998055
0.298216998577 1.24993503094 0.0046078003943
0.347872018814 1.24992799759 -0.00106390193105
0.397525012493 1.24992203712 -0.00673630088568
0.447176992893 1.24991393089 -0.0124092027545
0.496825993061 1.24990701675 -0.0180827006698
0.54647397995 1.24989795685 -0.0237563028932
0.596119046211 1.24988901615 -0.0294295996428
0.645761013031 1.24987602234 -0.0351020023227
0.695395946503 1.24985599518 -0.0407756045461
0.745023965836 1.24983298779 -0.0464496985078
0.794651031494 1.24982702732 -0.0521237999201
-0.198377996683 1.29999995232 0.0612889975309
-0.148727998137 1.29999995232 0.055622600019
-0.0990749970078 1.29999995232 0.0499572902918
-0.0494169890881 1.29999995232 0.0442918911576
0.000243008136749 1.29999995232 0.0386260487139
0.0499050021172 1.29999995232 0.0329589881003
0.0995700061321 1.29999995232 0.0272902995348
0.149234995246 1.29999995232 0.0216204989702
0.198898002505 1.29999995232 0.0159498993307
0.248559981585 1.29999995232 0.0102787986398
0.298218011856 1.29999995232 0.00460739806294
0.347874999046 1.29999995232 -0.00106460228562
0.397529006004 1.29999995232 -0.00673710182309
0.447180986404 1.29999995232 -0.0124101005495
0.496830999851 1.29999995232 -0.0180836990476
0.54647898674 1.29999995232 -0.0237575024366
0.596125006676 1.29999995232 -0.0294307991862
0.645769000053 1.29999995232 -0.0351023972034
0.695406973362 1.29999995232 -0.0407723039389
0.745028972626 1.29999995232 -0.0464477986097
0.794641017914 1.29999995232 -0.0521271973848
0.00914188008755 0.0 0.0780118778348
0.0578494220972 0.0 0.0724112987518
0.106857083738 0.0 0.0667079985142
0.156105518341 0.0 0.0609796978533
0.205538004637 0.0 0.055297896266
0.255066305399 0.0 0.0497258976102
0.304332911968 0.0 0.0444040969014
0.351964622736 0.0 0.0397194996476
0.396680414677 0.0 0.0361957997084
0.436302989721 0.0 0.0338360965252
0.4704220891 0.0 0.0322615988553
0.500865399837 0.0 0.0305773988366
0.52818274498 0.0 0.0290203988552
0.552349686623 0.0 0.0275782980025
0.57330596447 0.0 0.0258429981768
0.595059990883 0.0 0.0242771990597
0.616590023041 0.0 0.0232992991805
0.632754027843 0.0 0.0226018987596
0.644801974297 0.0 0.0217780992389
0.655354976654 0.0 0.0205977000296
0.668069958687 0.0 0.0195638984442
0.00939302984625 0.0520541705191 0.0779830366373
0.0581117197871 0.051474891603 0.072411775589
0.107109628618 0.0509166941047 0.0667331963778
0.156279757619 0.0505372844636 0.0610297992826
0.205483436584 0.0503739714622 0.0553452968597
0.25454390049 0.0507517196238 0.0497639998794
0.302597373724 0.0526511222124 0.0445729978383
0.348536461592 0.0577052906156 0.0402493998408
0.389594316483 0.069562703371 0.0372083969414
0.424157202244 0.090827703476 0.0357403978705
0.454944103956 0.114321500063 0.0342116989195
0.483035504818 0.139864593744 0.0324705988169
0.509671509266 0.166774004698 0.030237197876
0.537111997604 0.190589994192 0.027630597353
0.567427992821 0.207883000374 0.0251454971731
0.596451997757 0.229079991579 0.0224341973662
0.624054014683 0.257418990135 0.0188206993043
0.654363036156 0.277884989977 0.014442294836
0.685799956322 0.285059005022 0.0102261975408
0.716516017914 0.28680601716 0.00633630156517
0.743880033493 0.280737012625 0.00328680127859
0.0102217998356 0.104085929692 0.0779177695513
0.0588481910527 0.102962508798 0.0724614560604
0.107732959092 0.102083913982 0.0668635964394
0.156521171331 0.101688921452 0.0613029003143
0.204703494906 0.102271571755 0.0558728985488
0.251245886087 0.104789450765 0.0508852005005
0.295377969742 0.111009202898 0.0467994995415
0.334595680237 0.125307604671 0.0441349968314
0.366503298283 0.151523306966 0.0429760999978
0.393410086632 0.18598601222 0.041734598577
0.418297290802 0.223508998752 0.0397822000086
0.444524019957 0.256069988012 0.0371298976243
0.473411023617 0.28364700079 0.0338406972587
0.506308972836 0.304735004902 0.0298281982541
0.539025008678 0.325776010752 0.0254688970745
0.571437001228 0.346320003271 0.0203717984259
0.607179999352 0.361171990633 0.0146368965507
0.647341012955 0.371445983648 0.00903369486332
0.690683960915 0.37549200654 0.00362139940262
0.734941005707 0.375346004963 -0.0015924051404
0.778550028801 0.371389001608 -0.0066722035408
0.0117351999506 0.156552612782 0.0779725462198
0.0598772801459 0.15514421463 0.0728308409452
0.108087524772 0.154757171869 0.0674806013703
0.155175819993 0.156160652637 0.0626467987895
0.199990034103 0.160898000002 0.0587923973799
0.241219386458 0.170959606767 0.0562064982951
0.276911705732 0.188436701894 0.0544805973768
0.305479884148 0.217977315187 0.0531772002578
0.329424709082 0.257637023926 0.0515474975109
0.35216358304 0.300742000341 0.048860296607
0.37811601162 0.33684900403 0.0449900999665
0.408870995045 0.36414501071 0.0405015982687
0.444437026978 0.382031023502 0.0355937965214
0.480457961559 0.397997021675 0.0304198972881
0.516617000103 0.414245009422 0.0248562991619
0.5565969944 0.425713002682 0.0190381966531
0.600032031536 0.432381004095 0.0132114961743
0.645273029804 0.435313999653 0.00743089616299
0.691651940346 0.436132997274 0.0018448010087
0.738604009151 0.434839993715 -0.0035414993763
0.785130023956 0.431748002768 -0.00895439833403
0.014493400231 0.212316200137 0.0789930298924
0.06064959988 0.211573705077 0.074608117342
0.10554972291 0.215597808361 0.0705293416977
0.146393582225 0.224798902869 0.0678621008992
0.18238979578 0.241239994764 0.0662249997258
0.212688699365 0.26719519496 0.0648640990257
0.237362504005 0.303497999907 0.0631812959909
0.260681092739 0.343187987804 0.0605950988829
0.285145014524 0.381878018379 0.0567255988717
0.312967985868 0.414927005768 0.0517748966813
0.345941007137 0.438512980938 0.0463869981468
0.3835080266 0.453976988792 0.040866099298
0.422906041145 0.465920031071 0.0352946966887
0.463047981262 0.476960003376 0.0297086983919
0.506117999554 0.484867990017 0.0238702967763
0.551527023315 0.489277005196 0.0179100967944
0.598152041435 0.491400003433 0.012065500021
0.645599007607 0.49188798666 0.0063456967473
0.693405985832 0.491194009781 0.000721096992493
0.741374015808 0.489655017853 -0.00482120364904
0.788927018642 0.487170994282 -0.0104225054383
0.0203077998012 0.285211592913 0.0828668549657
0.0567275322974 0.290942907333 0.07991284132
0.0890533998609 0.307115793228 0.0780916959047
0.117023602128 0.332051992416 0.0763705894351
0.141128212214 0.364793002605 0.0742621198297
0.163797110319 0.401124000549 0.0714456811547
0.188671022654 0.435110002756 0.0677464976907
0.217015996575 0.463409006596 0.063175201416
0.249225005507 0.485894978046 0.0578115954995
0.28570997715 0.503908991814 0.0519974976778
0.325845003128 0.518038034439 0.0461067967117
0.367747008801 0.527809977531 0.0402959994972
0.410531044006 0.535607993603 0.0344506986439
0.455622971058 0.540931999683 0.0285653993487
0.502399981022 0.543843984604 0.0227480977774
0.550060033798 0.545273005962 0.0169847011566
0.598253011703 0.545534968376 0.0112664997578
0.646670043468 0.545099973679 0.00561029464006
0.695183992386 0.544119000435 -1.94013118744e-05
0.743620991707 0.5427069664 -0.00561900436878
0.791904985905 0.540722966194 -0.0112956985831
-0.0051529398188 0.405013024807 0.0891452282667
0.0188158005476 0.420381009579 0.0866453573108
0.0408444032073 0.442735016346 0.0843464285135
0.064057007432 0.46843701601 0.0813745185733
0.0897450000048 0.494610011578 0.0776752978563
0.118858993053 0.51861000061 0.0732624009252
0.151605010033 0.538510024548 0.0683239996433
0.187986001372 0.554535031319 0.0629388988018
0.227777004242 0.566328048706 0.0573447979987
0.269933998585 0.575309038162 0.051667496562
0.313539981842 0.583486020565 0.0457113981247
0.358556032181 0.590296030045 0.0396911986172
0.405263006687 0.594259023666 0.0337140969932
0.452907979488 0.596314013004 0.0278297998011
0.501191020012 0.597368001938 0.0220766998827
0.549947023392 0.597648024559 0.016412101686
0.598886013031 0.59744900465 0.0107726976275
0.647832036018 0.596862018108 0.00514619797468
0.69669097662 0.596014976501 -0.000452198088169
0.745527982712 0.594761013985 -0.00601810216904
0.794205009937 0.593026041985 -0.0116119980812
-0.0721239969134 0.524239003658 0.0943653956056
-0.0427554957569 0.539309024811 0.0909519940615
-0.0127459987998 0.556438982487 0.0873975977302
0.0190840065479 0.574207007885 0.0833072885871
0.0534460097551 0.590768992901 0.0786495879292
0.0903239995241 0.605512022972 0.0735325068235
0.129961013794 0.617516994476 0.0681414008141
0.172194987535 0.626212000847 0.0625301003456
0.21620900929 0.632722020149 0.0567606985569
0.261190980673 0.637776970863 0.0509485974908
0.307105004787 0.642176985741 0.0450869984925
0.354469001293 0.645462036133 0.0391458980739
0.402823030949 0.647376000881 0.0332898981869
0.451709985733 0.648276984692 0.0275294966996
0.500889003277 0.648566961288 0.0218266993761
0.550179004669 0.648548960686 0.0161609947681
0.599498033524 0.648312985897 0.0105161964893
0.648750007153 0.647904992104 0.004897095263
0.697937011719 0.647239983082 -0.000684902071953
0.747016966343 0.646209955215 -0.00623240321875
0.795855998993 0.644958972931 -0.0117775052786
-0.115576997399 0.616981983185 0.0980703979731
-0.0809819996357 0.630150020123 0.0937486961484
-0.0451520010829 0.643324017525 0.0893089920282
-0.00742098689079 0.655776023865 0.0844259858131
0.0322780013084 0.666738986969 0.0791539251804
0.0741250067949 0.675732970238 0.0736064314842
0.118034005165 0.6826390028 0.0678768977523
0.163330987096 0.687759041786 0.0620898008347
0.209504008293 0.691498041153 0.0563123971224
0.2565099895 0.694393992424 0.0504893958569
0.304379999638 0.696294009686 0.044679697603
0.352892011404 0.697634994984 0.038911499083
0.40192502737 0.698459029198 0.0331656970084
0.451296985149 0.698804974556 0.0274554975331
0.500817000866 0.69890499115 0.0217660963535
0.550369024277 0.698853969574 0.0160882994533
0.599895000458 0.698711037636 0.0104245990515
0.649376988411 0.698460996151 0.00478419661522
0.698782980442 0.69801402092 -0.000820398330688
0.748026013374 0.697381973267 -0.00639969855547
0.797082006931 0.696514964104 -0.0119782984257
-0.143779993057 0.696114003658 0.100512698293
-0.105328008533 0.706777989864 0.0955649018288
-0.0653510019183 0.716552019119 0.0904323011637
-0.0236659944057 0.725041031837 0.0849526003003
0.0198630094528 0.731905996799 0.0792733505368
0.0649829953909 0.737007021904 0.0734741613269
0.111177012324 0.740926027298 0.0676445960999
0.158220991492 0.743906021118 0.0618304982781
0.205993011594 0.745998978615 0.0560466982424
0.254372984171 0.747346997261 0.0502837970853
0.303176999092 0.748157024384 0.0445407964289
0.352306008339 0.748644948006 0.0388336963952
0.401706039906 0.748888969421 0.0331307984889
0.451245963573 0.748968958855 0.027431897819
0.500850975513 0.748966991901 0.0217448994517
0.550472021103 0.748934984207 0.0160669013858
0.600090026855 0.748862028122 0.0103968009353
0.649697005749 0.748726963997 0.00473769754171
0.699238955975 0.748513996601 -0.000903598964214
0.748678982258 0.748189985752 -0.0065221041441
0.797950983047 0.747650980949 -0.0121183022857
-0.162937000394 0.766332030296 0.101458400488
-0.121230006218 0.774751007557 0.0960984006524
-0.078172005713 0.781509041786 0.0906095951796
-0.0334360003471 0.786700963974 0.0849145948887
0.0126789957285 0.790557026863 0.0790928304195
0.0596899986267 0.793395996094 0.0732533782721
0.10736900568 0.795516014099 0.0674415975809
0.15564198792 0.79706299305 0.0616591982543
0.204378008842 0.798067986965 0.0559022985399
0.25343298912 0.798650979996 0.0501789972186
0.302711993456 0.798958003521 0.0444763973355
0.352147996426 0.7990629673 0.0387806966901
0.401693046093 0.799080967903 0.0330948978662
0.45130199194 0.799059987068 0.0274127982557
0.500927984715 0.799033999443 0.0217319987714
0.55055898428 0.798997044563 0.0160550996661
0.600198030472 0.798938035965 0.0103821009398
0.64983600378 0.798866987228 0.00471399724483
0.699453949928 0.798779964447 -0.000944703817368
0.749033987522 0.798638999462 -0.00658920407295
0.798534989357 0.798366010189 -0.0122238025069
-0.175810992718 0.830978989601 0.100781902671
-0.131756007671 0.83679497242 0.0957092940807
-0.0859800055623 0.840543031693 0.0902656987309
-0.0390059947968 0.84329199791 0.0845778360963
0.00865299999714 0.845345973969 0.0788188651204
0.0568619966507 0.846849024296 0.073041729629
0.105499014258 0.847869038582 0.0672779008746
0.154469996691 0.848559975624 0.0615357980132
0.203696012497 0.848985016346 0.055815897882
0.253091990948 0.8492000103 0.0501163974404
0.302595019341 0.849272012711 0.044429898262
0.352158010006 0.849252998829 0.0387482978404
0.401752024889 0.849194049835 0.0330719985068
0.451369971037 0.84914702177 0.0273969992995
0.501001954079 0.849115967751 0.0217209979892
0.550642967224 0.849076986313 0.0160444974899
0.60028398037 0.849027037621 0.0103686973453
0.649923026562 0.848972022533 0.00469569861889
0.699561953545 0.848914027214 -0.000972002744675
0.749200999737 0.848837971687 -0.00663600116968
0.798813998699 0.848701000214 -0.012299798429
-0.184988006949 0.890132009983 0.100520893931
-0.138011008501 0.893624067307 0.0952045992017
-0.0901890024543 0.895451009274 0.0897289961576
-0.0419979989529 0.896795988083 0.084201015532
0.00659200549126 0.897829055786 0.0785469561815
0.0554929971695 0.898532986641 0.0728564485908
0.104651018977 0.898977041245 0.0671527013183
0.153988987207 0.899237990379 0.0614520981908
0.203457012773 0.899375021458 0.0557602979243
0.253005981445 0.899422049522 0.0500770956278
0.302599996328 0.899407982826 0.0444003976882
0.352212011814 0.899363040924 0.0387288965285
0.401826024055 0.899308025837 0.0330573990941
0.451442956924 0.899254024029 0.0273837000132
0.50107395649 0.899210035801 0.0217089988291
0.550715982914 0.899170994759 0.0160331949592
0.600359022617 0.899127006531 0.0103562995791
0.650001049042 0.899075984955 0.00468000024557
0.699642956257 0.899021029472 -0.000994801521301
0.749288976192 0.898954987526 -0.00666680186987
0.798928976059 0.898882031441 -0.0123386010528
-0.189503997564 0.94442397356 0.100867398083
-0.141212999821 0.946581959724 0.0952624976635
-0.0924179926515 0.947854995728 0.0895758271217
-0.0434989929199 0.948557019234 0.0839681848884
0.0055900067091 0.949010014534 0.0783743187785
0.0548820048571 0.949301958084 0.0727325975895
0.104311019182 0.949458956718 0.0670676976442
0.153827995062 0.949527978897 0.0613965988159
0.203403010964 0.949542999268 0.0557233989239
0.253010988235 0.949523985386 0.0500507988036
0.302634000778 0.949492990971 0.044380299747
0.352259993553 0.949458003044 0.0387106984854
0.401887029409 0.94941598177 0.0330406986177
0.451514959335 0.949368000031 0.0273690968752
0.501145005226 0.949317932129 0.0216951966286
0.550781965256 0.949275016785 0.0160198956728
0.600425004959 0.949230968952 0.0103430971503
0.650068998337 0.949182987213 0.00466620177031
0.699711978436 0.949131965637 -0.0010097026825
0.749352991581 0.949074983597 -0.00668410211802
0.798991978168 0.949015974998 -0.012358404696
-0.191634997725 0.996825993061 0.100984297693
-0.142796009779 0.998014986515 0.0953357964754
-0.093620993197 0.998852968216 0.0896169766784
-0.0442909896374 0.999333024025 0.0839392989874
0.00513599812984 0.999534964561 0.0783055499196
0.0546389967203 0.999621987343 0.0726711302996
0.104200005531 0.999660968781 0.0670211985707
0.153793990612 0.99965596199 0.0613621994853
0.203409001231 0.999630987644 0.0556984990835
0.253035992384 0.99960398674 0.0500323995948
0.302667021751 0.999575972557 0.0443640984595
0.352301001549 0.9995470047 0.0386945977807
0.401937007904 0.999513983727 0.0330240987241
0.451572954655 0.999475002289 0.0273523963988
0.501208007336 0.999430000782 0.0216794982553
0.550843000412 0.999382972717 0.0160051956773
0.600485026836 0.999338030815 0.0103292018175
0.650128006935 0.999293982983 0.00465299934149
0.699768960476 0.999248027802 -0.00102309882641
0.749408960342 0.999198973179 -0.00669880211353
0.799046993256 0.999148011208 -0.0123741999269
-0.192764997482 1.04829406738 0.100937597454
-0.143582999706 1.04893803596 0.0953141972423
-0.0942020043731 1.04935503006 0.0896505191922
-0.0446619987488 1.04959893227 0.0839758887887
0.00493800640106 1.04971504211 0.0783111602068
0.0545479953289 1.04974794388 0.0726592987776
0.10416701436 1.0497469902 0.067006200552
0.153793990612 1.04973196983 0.0613477006555
0.203426003456 1.04970693588 0.0556851997972
0.253059983253 1.04967999458 0.0500195994973
0.302697002888 1.04965603352 0.0443517975509
0.352337002754 1.04962992668 0.0386819988489
0.4019780159 1.04960298538 0.0330109968781
0.45161896944 1.04957103729 0.0273386985064
0.501258969307 1.04953503609 0.0216652974486
0.550898015499 1.04949092865 0.0159909948707
0.600538015366 1.04944705963 0.0103162005544
0.650179028511 1.04940700531 0.00464049726725
0.699818968773 1.04936599731 -0.0010355040431
0.74945795536 1.04932498932 -0.00671150535345
0.799095988274 1.04927992821 -0.0123873054981
-0.193397000432 1.09916806221 0.100939698517
-0.143984004855 1.09949100018 0.0953141972423
-0.094420991838 1.09963202477 0.0896568670869
-0.0447990000248 1.09970903397 0.0839927867055
0.00485000014305 1.09976100922 0.0783287361264
0.0544990003109 1.09979200363 0.0726676210761
0.104145005345 1.0997979641 0.0670072957873
0.153789997101 1.09978795052 0.0613452978432
0.20343400538 1.0997710228 0.0556802973151
0.253077983856 1.09975194931 0.0500130988657
0.302720993757 1.09973096848 0.0443440973759
0.352366030216 1.09970903397 0.0386734977365
0.402011036873 1.09968495369 0.0330015979707
0.451654970646 1.09965896606 0.0273285992444
0.501299023628 1.09962904453 0.0216543972492
0.550942003727 1.099593997 0.0159795954823
0.600580990314 1.09955704212 0.0103046000004
0.650220990181 1.09952104092 0.00462959706783
0.699860990047 1.09948599339 -0.00104629993439
0.749499976635 1.09945106506 -0.00672300159931
0.79913598299 1.09941506386 -0.0123993009329
-0.193734005094 1.14963006973 0.101006299257
-0.144128009677 1.14972805977 0.0953314974904
-0.0944909974933 1.14976000786 0.0896611958742
-0.0448449999094 1.14978301525 0.0839986279607
0.00480800867081 1.14981102943 0.0783374086022
0.0544649958611 1.14983403683 0.0726756080985
0.104124009609 1.14984405041 0.0670114979148
0.153780996799 1.14984202385 0.0613456964493
0.203436002135 1.14983105659 0.0556784979999
0.253087997437 1.14981806278 0.0500096976757
0.302738010883 1.14980196953 0.044339299202
0.35238802433 1.14978408813 0.0386675968766
0.402036011219 1.14976501465 0.0329945981503
0.451683998108 1.14974498749 0.0273206979036
0.501330018044 1.14972198009 0.0216460973024
0.550974011421 1.14969599247 0.0159709975123
0.600615024567 1.14966702461 0.0102953016758
0.650254011154 1.14963507652 0.00461969524622
0.699892997742 1.14960598946 -0.00105600059032
0.749531984329 1.14957809448 -0.00673250108957
0.799169003963 1.14954900742 -0.0124090015888
-0.193825006485 1.19979095459 0.101014696062
-0.144171997905 1.19982290268 0.0953412950039
-0.0945189967752 1.19984292984 0.0896726846695
-0.0448679924011 1.19985496998 0.084008641541
0.00478699803352 1.19987094402 0.0783459171653
0.0544479936361 1.19988501072 0.0726817175746
0.104111015797 1.19989299774 0.0670153945684
0.153773993254 1.19989395142 0.0613472983241
0.203435003757 1.19988894463 0.0556778982282
0.253093004227 1.19988000393 0.0500073954463
0.302747994661 1.19986891747 0.0443358980119
0.352402031422 1.19985699654 0.0386632978916
0.402054011822 1.19984400272 0.0329897999763
0.451703965664 1.19982993603 0.0273153968155
0.501351952553 1.19981503487 0.0216402970254
0.550997972488 1.19979798794 0.0159645974636
0.600641012192 1.19977796078 0.01028829813
0.650279998779 1.19975197315 0.00461149960756
0.699916005135 1.19972801208 -0.00106430053711
0.749554991722 1.19970595837 -0.00673989951611
0.799189984798 1.19968605042 -0.0124154016376
-0.193839997053 1.24989795685 0.101003795862
-0.144190996885 1.2499089241 0.0953412950039
-0.0945369973779 1.24992001057 0.0896786004305
-0.0448810011148 1.24992799759 0.0840151384473
0.00477799773216 1.24993503094 0.0783509165049
0.0544400066137 1.24994194508 0.0726851969957
0.104105010629 1.24994599819 0.0670174956322
0.153769999743 1.24994695187 0.0613482967019
0.20343400538 1.24994492531 0.0556777976453
0.25309497118 1.2499409914 0.0500063970685
0.302753984928 1.24993503094 0.0443340986967
0.352410018444 1.24992895126 0.0386609993875
0.402064025402 1.24992203712 0.032986998558
0.451714992523 1.24991500378 0.0273121967912
0.50136500597 1.24990797043 0.021636698395
0.551012992859 1.24989902973 0.01596070081
0.600657999516 1.24988901615 0.0102842003107
0.65030002594 1.24987697601 0.00460749864578
0.699934005737 1.2498550415 -0.00106970220804
0.749565005302 1.24984002113 -0.00674740225077
0.799190998077 1.24984192848 -0.0124253034592
-0.193844005466 1.29999995232 0.101007297635
-0.144195005298 1.29999995232 0.0953428968787
-0.094542004168 1.29999995232 0.0896801799536
-0.044884994626 1.29999995232 0.0840171054006
0.00477500259876 1.29999995232 0.0783525407314
0.054437994957 1.29999995232 0.0726862177253
0.104103013873 1.29999995232 0.0670180991292
0.153769001365 1.29999995232 0.0613484978676
0.203433007002 1.29999995232 0.0556776970625
0.253095984459 1.29999995232 0.0500060990453
0.302754998207 1.29999995232 0.044333498925
0.3524120152 1.29999995232 0.0386601984501
0.402067005634 1.29999995232 0.0329860970378
0.451718986034 1.29999995232 0.0273110978305
0.501369953156 1.29999995232 0.0216354988515
0.551017999649 1.29999995232 0.0159593969584
0.600664019585 1.29999995232 0.0102830007672
0.650308012962 1.29999995232 0.00460659712553
0.699944972992 1.29999995232 -0.00107169896364
0.749565005302 1.29999995232 -0.0067515000701
0.799185991287 1.29999995232 -0.0124329999089
0.0135484999046 0.0 0.11712307483
0.062287800014 0.0 0.111686334014
0.111335098743 0.0 0.106197997928
0.160640999675 0.0 0.100629396737
0.210134908557 0.0 0.0949734970927
0.259676158428 0.0 0.0892557948828
0.308779239655 0.0 0.0835676938295
0.356194466352 0.0 0.0775834023952
0.400473892689 0.0 0.0713017955422
0.439728081226 0.0 0.0650815963745
0.473663210869 0.0 0.0595091991127
0.503446996212 0.0 0.0544085949659
0.5304261446 0.0 0.0496144965291
0.554221153259 0.0 0.0453714951873
0.575129985809 0.0 0.0416241958737
0.597366988659 0.0 0.0380517989397
0.618188023567 0.0 0.0342096984386
0.633223056793 0.0 0.0309377983212
0.645380020142 0.0 0.0292132943869
0.655959963799 0.0 0.0286444947124
0.668687999249 0.0 0.0275573953986
0.0138109996915 0.0520232394338 0.117161437869
0.0625585988164 0.051433570683 0.111687809229
0.111595503986 0.0508601590991 0.106191694736
0.160806700587 0.0504750870168 0.100636698306
0.210041299462 0.0503338947892 0.0949998944998
0.259059011936 0.0507902875543 0.0892471000552
0.306997060776 0.0528309494257 0.083363994956
0.352686136961 0.0580677390099 0.077172100544
0.393482595682 0.0700698047876 0.070820197463
0.427749693394 0.0908019021153 0.065127491951
0.457544893026 0.115958705544 0.0603023990989
0.485393106937 0.141546294093 0.0562158972025
0.512112021446 0.166795998812 0.0526477992535
0.539702951908 0.190098002553 0.0492412000895
0.569787979126 0.208267003298 0.0457683950663
0.59808498621 0.23257599771 0.0426816940308
0.62603700161 0.261137992144 0.0399195998907
0.656955003738 0.278549998999 0.0368921980262
0.688346982002 0.285221993923 0.0335785001516
0.719105005264 0.286635994911 0.0300594940782
0.746464967728 0.280569016933 0.0267765969038
0.0146680995822 0.104019604623 0.117227137089
0.0633011013269 0.102883473039 0.111644640565
0.112210601568 0.101988375187 0.106114797294
0.161005809903 0.101575247943 0.100547000766
0.209075570107 0.102221414447 0.0948538929224
0.255498856306 0.104604944587 0.0888447016478
0.29958742857 0.110588304698 0.0824629962444
0.338391005993 0.124801501632 0.0759357959032
0.370089590549 0.150292694569 0.0703617930412
0.396046489477 0.186500996351 0.0660143941641
0.42067939043 0.224141001701 0.0626855939627
0.446622014046 0.257826000452 0.0601325966418
0.47596603632 0.284732013941 0.0578679963946
0.50906598568 0.304892987013 0.0549282953143
0.541583001614 0.326305001974 0.0517242997885
0.574131965637 0.347043007612 0.0486314967275
0.610505998135 0.36216199398 0.0455800965428
0.651275038719 0.371950000525 0.0422512963414
0.694723963737 0.375705003738 0.0380659997463
0.738905966282 0.375450998545 0.0332909971476
0.782483994961 0.37139198184 0.0285120010376
0.0161834005266 0.156460478902 0.117109157145
0.0642610043287 0.155038550496 0.111304625869
0.11244609952 0.154653340578 0.105689994991
0.159397661686 0.156041309237 0.0998147949576
0.203991398215 0.160717904568 0.0935214012861
0.244856253266 0.170401111245 0.0870099961758
0.279963701963 0.187576308846 0.0807514935732
0.308447003365 0.216723710299 0.0756924971938
0.332161515951 0.256420016289 0.0721385926008
0.354442685843 0.300391018391 0.069501593709
0.380416989326 0.337213993073 0.0672571957111
0.411451011896 0.364799022675 0.0648050010204
0.447044014931 0.383381009102 0.0618777982891
0.483256995678 0.399120986462 0.0587101988494
0.519874989986 0.414840012789 0.0555467009544
0.56040596962 0.426046997309 0.0522182956338
0.60410797596 0.432391017675 0.0483260005713
0.64947104454 0.435492992401 0.0438621938229
0.69602394104 0.436408013105 0.0389712005854
0.743011951447 0.435241013765 0.0337888002396
0.789381027222 0.432207018137 0.0286998003721
0.0187104996294 0.212240606546 0.115795373917
0.0646506994963 0.211488395929 0.109661899507
0.109318941832 0.215490207076 0.103553295135
0.149748191237 0.224722102284 0.0970420986414
0.185359999537 0.240884810686 0.0907844975591
0.215286001563 0.266661286354 0.0855491012335
0.240042120218 0.302438020706 0.0818953961134
0.263216286898 0.341991007328 0.0794914960861
0.287504017353 0.381151020527 0.0775759965181
0.315666973591 0.414259016514 0.0754963979125
0.348968982697 0.438282996416 0.0729164928198
0.386645019054 0.454147994518 0.0696855932474
0.426101028919 0.466476976871 0.0659381002188
0.466691970825 0.477641999722 0.0622827969491
0.510150969028 0.485125005245 0.0585572980344
0.555700004101 0.489358007908 0.0543007999659
0.602467000484 0.4914919734 0.0495596006513
0.649990022182 0.492016017437 0.0444560945034
0.697826981544 0.491433024406 0.0391083955765
0.745815992355 0.490051031113 0.0335417985916
0.79355597496 0.487609028816 0.0279690995812
0.0235118996352 0.285156697035 0.110872514546
0.0596669390798 0.290901392698 0.10554599762
0.0915701985359 0.307086110115 0.100104495883
0.119302004576 0.331845104694 0.0955922976136
0.143214598298 0.364730000496 0.0923480987549
0.166054308414 0.400965005159 0.0901530981064
0.191120013595 0.434908986092 0.0884356945753
0.219782993197 0.463162004948 0.0866355001926
0.252231001854 0.485787004232 0.0844004973769
0.289070010185 0.503656983376 0.0815559923649
0.329374015331 0.517848968506 0.0779120922089
0.371425032616 0.527899980545 0.0737053975463
0.414572030306 0.535686969757 0.0695890933275
0.459858953953 0.540973007679 0.0652602016926
0.506733000278 0.543918967247 0.0604728981853
0.554464995861 0.545352995396 0.0553683936596
0.602692008018 0.545647978783 0.050044298172
0.651135027409 0.54522895813 0.0445725992322
0.69961899519 0.544295012951 0.0389528945088
0.748124957085 0.542819023132 0.0332471951842
0.796535015106 0.540749013424 0.0275810956955
-0.00271371006966 0.405154019594 0.110634945333
0.0211929008365 0.420420020819 0.107690498233
0.0432502031326 0.442629992962 0.105007000268
0.0664981082082 0.468441009521 0.102748699486
0.0924089998007 0.494551002979 0.100646793842
0.121674999595 0.518643975258 0.0984468013048
0.154644012451 0.538685023785 0.0958036929369
0.191266000271 0.554875016212 0.0927107930183
0.231422007084 0.566588044167 0.0891530960798
0.273755967617 0.575579047203 0.0852468013763
0.317512989044 0.583634018898 0.0810156986117
0.362769007683 0.590268015862 0.076485298574
0.40957403183 0.594236016273 0.071631796658
0.457312971354 0.596307992935 0.0665224939585
0.505676984787 0.597411036491 0.0612196959555
0.55445098877 0.597722053528 0.0557428970933
0.603395998478 0.59751200676 0.0501593947411
0.652322053909 0.596950054169 0.0445028990507
0.701214969158 0.596056997776 0.038806296885
0.750077009201 0.594704031944 0.033124499023
0.798723995686 0.593005001545 0.0274804979563
-0.0691000968218 0.523874998093 0.120572693646
-0.0396321006119 0.539059996605 0.117373466492
-0.00962399691343 0.556311964989 0.114125870168
0.0223090052605 0.574093997478 0.110975950956
0.0567260086536 0.590804994106 0.107749097049
0.093836992979 0.605513989925 0.104314699769
0.133695006371 0.617501974106 0.100594699383
0.17608499527 0.626263976097 0.0964882969856
0.220182001591 0.632842004299 0.0920348018408
0.265329003334 0.637966990471 0.0873962938786
0.311460018158 0.642305016518 0.0827575922012
0.35889300704 0.645506978035 0.0778331980109
0.40729701519 0.647390007973 0.0725218951702
0.456210970879 0.648288011551 0.06701669842
0.505400002003 0.648600995541 0.0614318959415
0.554718971252 0.648579001427 0.0558016002178
0.604032039642 0.648344993591 0.0501361936331
0.653294026852 0.647922992706 0.0444418936968
0.702489972115 0.647203981876 0.0387484952807
0.751537978649 0.64618396759 0.0330490991473
0.800352990627 0.644939005375 0.0273585990071
-0.112006999552 0.616787016392 0.12761940062
-0.0773990005255 0.629877984524 0.123884819448
-0.0415519997478 0.643195033073 0.120036445558
-0.00383698940277 0.655830979347 0.116160199046
0.0360430032015 0.666767001152 0.112139388919
0.0780690014362 0.675706982613 0.107961900532
0.122091010213 0.682651042938 0.103487998247
0.167496994138 0.687788009644 0.0987363010645
0.213784009218 0.691537976265 0.0938175991178
0.260876983404 0.694432020187 0.0887793004513
0.308813989162 0.696397006512 0.0835817009211
0.357402026653 0.697700977325 0.0782388970256
0.406462013721 0.698482036591 0.0727607011795
0.455834984779 0.698821008205 0.0671553015709
0.505355000496 0.698906004429 0.061491895467
0.554910004139 0.698860049248 0.055813498795
0.604442000389 0.698719024658 0.0501250997186
0.653927028179 0.698441028595 0.0444299951196
0.703315973282 0.697991967201 0.0387226939201
0.75254201889 0.697360992432 0.0330049991608
0.801593005657 0.696508049965 0.0273203998804
-0.13989700377 0.696301996708 0.132758691907
-0.101541996002 0.707059979439 0.128403663635
-0.0616819933057 0.716820001602 0.123938269913
-0.019789993763 0.725131988525 0.119407661259
0.0239180028439 0.731958031654 0.114829137921
0.0691429972649 0.737082958221 0.110081076622
0.115435019135 0.740988969803 0.105122096837
0.162576988339 0.743952989578 0.100009799004
0.210427001119 0.746021986008 0.0947775989771
0.258836984634 0.747368991375 0.0894147977233
0.307671993971 0.748170018196 0.0839405953884
0.356836020947 0.748665988445 0.0784021988511
0.406247019768 0.74891102314 0.0728048980236
0.455793976784 0.748980998993 0.0671622008085
0.505401015282 0.748973011971 0.0614944957197
0.555019021034 0.748932957649 0.0558140948415
0.604640007019 0.748853981495 0.0501244962215
0.654240012169 0.748718976974 0.0444299951196
0.703769981861 0.748498976231 0.0387246981263
0.753197968006 0.748166978359 0.0330156981945
0.802470982075 0.747632980347 0.0273294970393
-0.159033998847 0.767610013485 0.135466903448
-0.117531001568 0.775687992573 0.13098180294
-0.0742440000176 0.781890034676 0.126235112548
-0.0293159931898 0.786864995956 0.12136489898
0.0168949961662 0.790647983551 0.116376236081
0.0640120059252 0.793478965759 0.11124638468
0.111780017614 0.795580029488 0.10601849854
0.160103991628 0.797096014023 0.100672498345
0.208868011832 0.798092961311 0.0952149927616
0.257947981358 0.798664987087 0.0896756947041
0.307240009308 0.7989590168 0.0840850025415
0.356681019068 0.799075007439 0.0784599930048
0.406238019466 0.799095034599 0.0728103965521
0.455849975348 0.799071013927 0.0671451985836
0.505476951599 0.799041986465 0.0614720955491
0.555109024048 0.799000024796 0.0557945966721
0.604745984077 0.798938035965 0.050112195313
0.654381036758 0.798868000507 0.0444260984659
0.703994989395 0.798776984215 0.0387394949794
0.753562986851 0.798624038696 0.0330517962575
0.803043007851 0.798343002796 0.0273856967688
-0.172508001328 0.831971049309 0.136598095298
-0.127686008811 0.837535023689 0.132173597813
-0.0816769972444 0.840942978859 0.127525061369
-0.0347130000591 0.843541026115 0.122559897602
0.0130240023136 0.845475018024 0.117289930582
0.0612969994545 0.846922039986 0.111926466227
0.109976008534 0.84791302681 0.106481999159
0.158974990249 0.848592996597 0.100965097547
0.20821800828 0.849009037018 0.0953881964087
0.257624983788 0.849215984344 0.0897699967027
0.307132005692 0.849285006523 0.0841255933046
0.356697022915 0.84925699234 0.0784661024809
0.406296014786 0.849197983742 0.0727984979749
0.455915987492 0.849156022072 0.0671259015799
0.50554895401 0.849123001099 0.0614498965442
0.555189013481 0.849081993103 0.0557720959187
0.604830026627 0.849030971527 0.0500936955214
0.65446805954 0.848976016045 0.0444153994322
0.704105973244 0.848922014236 0.0387373939157
0.753737986088 0.848850011826 0.0330600962043
0.803344011307 0.848710000515 0.0273934006691
-0.180776998401 0.889895021915 0.138540893793
-0.133748009801 0.893670022488 0.133443698287
-0.0857970044017 0.895773053169 0.128299877048
-0.0375259965658 0.897017002106 0.123109444976
0.0110599994659 0.897937059402 0.11775636673
0.0599839985371 0.898599028587 0.112244620919
0.109162017703 0.899016022682 0.106674700975
0.158514991403 0.899264037609 0.101070299745
0.207993999124 0.89939302206 0.0954400971532
0.25754699111 0.899435043335 0.0897903963923
0.307143002748 0.899416029453 0.084126599133
0.356755018234 0.899369001389 0.0784554928541
0.406367003918 0.899313032627 0.0727806985378
0.455984979868 0.899260044098 0.0671048015356
0.505617976189 0.89921605587 0.0614285990596
0.555258989334 0.899175047874 0.0557520985603
0.604902029037 0.899131059647 0.0500757992268
0.654543042183 0.899082064629 0.0443992987275
0.704183995724 0.899030029774 0.0387220010161
0.75382900238 0.898966014385 0.0330445989966
0.803470015526 0.898892045021 0.0273692980409
-0.185013994575 0.94428896904 0.139733895659
-0.136818006635 0.946466982365 0.134326100349
-0.0880169942975 0.94787299633 0.128877609968
-0.0390169918537 0.948676943779 0.123398765922
0.0101130008698 0.949091970921 0.117909885943
0.0594040006399 0.94934296608 0.112352289259
0.108842015266 0.949488997459 0.106737099588
0.15836699307 0.9495459795 0.101098701358
0.207944005728 0.94955599308 0.0954455956817
0.257553994656 0.949535012245 0.089781396091
0.307177007198 0.949502944946 0.0841107964516
0.356802016497 0.949465990067 0.0784370005131
0.406429022551 0.949422955513 0.0727614015341
0.456055969 0.949373006821 0.067085698247
0.505686998367 0.949324011803 0.0614106990397
0.555325031281 0.94927996397 0.0557359978557
0.6049669981 0.949235975742 0.0500598996878
0.654610037804 0.949190020561 0.0443827956915
0.704252958298 0.949138998985 0.038705393672
0.753893971443 0.949083983898 0.0330282002687
0.803533017635 0.9490249753 0.0273509994149
-0.187175005674 0.996867001057 0.140144199133
-0.138342007995 0.998044967651 0.134681001306
-0.0891610011458 0.998829960823 0.129171088338
-0.0398019999266 0.999328970909 0.12359020859
0.00965800881386 0.999570012093 0.117989078164
0.0591779947281 0.999650001526 0.112377867103
0.108741015196 0.999673008919 0.1067456007
0.158335998654 0.999668955803 0.101094596088
0.207952007651 0.999642968178 0.0954331979156
0.257577985525 0.999612987041 0.089765496552
0.307209014893 0.999583959579 0.0840943008661
0.35684299469 0.999553978443 0.0784206986427
0.406479030848 0.999519944191 0.0727459937334
0.456114977598 0.999480009079 0.0670707970858
0.505748987198 0.999433994293 0.0613956972957
0.555384993553 0.999388992786 0.0557213947177
0.605026006699 0.99934399128 0.0500450953841
0.654669046402 0.999300003052 0.0443678945303
0.704309940338 0.999255001545 0.0386904999614
0.753949999809 0.999205946922 0.0330131947994
0.803588032722 0.999154984951 0.0273360982537
-0.188318997622 1.04836404324 0.140366092324
-0.139099001884 1.04897093773 0.134825602174
-0.0896840021014 1.04934597015 0.129270672798
-0.0401449948549 1.04957604408 0.123676888645
0.00946299731731 1.04969596863 0.118044406176
0.0590849965811 1.04974603653 0.112398214638
0.108706012368 1.04975295067 0.106746301055
0.158333986998 1.04973697662 0.101085998118
0.207965001464 1.04971301556 0.0954205989838
0.257600009441 1.04968702793 0.0897523015738
0.30723798275 1.04966199398 0.0840812921524
0.356877028942 1.04963493347 0.0784085988998
0.406519025564 1.0496070385 0.0727347955108
0.456159979105 1.0495749712 0.0670598968863
0.505800008774 1.04953801632 0.0613841973245
0.555438995361 1.04949593544 0.0557080954313
0.605080008507 1.0494530201 0.0500316992402
0.654720008373 1.04941296577 0.0443550944328
0.70436000824 1.04937303066 0.0386775955558
0.753998994827 1.04933094978 0.0329998955131
0.80363702774 1.04928600788 0.0273225009441
-0.188917994499 1.09915995598 0.140529900789
-0.139460995793 1.09946799278 0.134940192103
-0.0898940041661 1.09962105751 0.129335790873
-0.0402700006962 1.09969699383 0.123709924519
0.00937899947166 1.09974896908 0.118068136275
0.0590289980173 1.09978699684 0.112412564456
0.108679011464 1.09979903698 0.106748700142
0.158325999975 1.09979200363 0.101082295179
0.207971006632 1.09977507591 0.0954140946269
0.257615983486 1.09975600243 0.0897438973188
0.307260990143 1.09973502159 0.0840725004673
0.356905996799 1.09971296787 0.0783997923136
0.406551003456 1.09968805313 0.0727259963751
0.45619598031 1.09966206551 0.0670509934425
0.50584000349 1.09963202477 0.0613749958575
0.555482983589 1.09959805012 0.0556981936097
0.60512304306 1.09956300259 0.050021097064
0.654763042927 1.09952700138 0.0443438962102
0.70440196991 1.09949302673 0.0386663004756
0.754040956497 1.09945702553 0.0329881981015
0.803678035736 1.09941899776 0.0273100957274
-0.189192995429 1.14958000183 0.140670597553
-0.139605998993 1.14970004559 0.135024905205
-0.0899649932981 1.1497490406 0.129378244281
-0.0403160005808 1.1497759819 0.123727940023
0.00933800637722 1.14980602264 0.118073038757
0.0589960068464 1.14983105659 0.112412206829
0.10865701735 1.14984405041 0.106747098267
0.158316001296 1.14984405041 0.10107909888
0.20797200501 1.14983403683 0.0954096019268
0.257624983788 1.14982008934 0.0897388011217
0.30727699399 1.14980399609 0.084066696465
0.356927007437 1.14978706837 0.0783932954073
0.406576037407 1.14976799488 0.0727186948061
0.456223964691 1.14974701405 0.0670430958271
0.505870997906 1.14972400665 0.0613664984703
0.555514991283 1.1496989727 0.0556892976165
0.605157017708 1.14967107773 0.0500115975738
0.654797017574 1.14964199066 0.0443342998624
0.704435944557 1.14961409569 0.0386562943459
0.75407397747 1.14958405495 0.0329778939486
0.803710997105 1.14955306053 0.0273000970483
-0.189290001988 1.19979298115 0.140722900629
-0.139646008611 1.1998180151 0.135057196021
-0.0899919942021 1.19983291626 0.12939620018
-0.0403389930725 1.19984996319 0.123737335205
0.00931699573994 1.19986701012 0.118076205254
0.0589790046215 1.19988393784 0.112412273884
0.108644008636 1.19989299774 0.106745794415
0.158307999372 1.19989490509 0.101077198982
0.207970008254 1.19989001751 0.0954069942236
0.257629990578 1.19988203049 0.0897353962064
0.307285994291 1.19987094402 0.0840625986457
0.356941014528 1.19985890388 0.0783884972334
0.406593024731 1.19984602928 0.0727133974433
0.456243991852 1.19983196259 0.0670371949673
0.505891978741 1.19981694221 0.0613599978387
0.555539011955 1.1998000145 0.0556821003556
0.605181992054 1.19977998734 0.0500033944845
0.654821038246 1.19975697994 0.0443244948983
0.704459965229 1.19973492622 0.0386463999748
0.754099011421 1.19971299171 0.0329678952694
0.803730964661 1.19969594479 0.0272889956832
-0.189310997725 1.24989998341 0.140725001693
-0.139659002423 1.2499089241 0.135062798858
-0.0900069996715 1.24991703033 0.129402697086
-0.0403509885073 1.24992394447 0.123741440475
0.00930801033974 1.24993300438 0.118078097701
0.0589710026979 1.2499409914 0.112412817776
0.108637005091 1.24994599819 0.1067456007
0.15830399096 1.24994695187 0.10107639432
0.207969009876 1.24994492531 0.0954056978226
0.257631987333 1.2499409914 0.0897336006165
0.307291984558 1.24993598461 0.0840601921082
0.356949031353 1.24993002415 0.0783856958151
0.406603038311 1.2499229908 0.0727100968361
0.456255972385 1.24991595745 0.0670335963368
0.505905985832 1.2499089241 0.0613560974598
0.555553019047 1.24989998341 0.0556776002049
0.605198979378 1.24988996983 0.0499980971217
0.654839992523 1.24987697601 0.044317394495
0.704475998878 1.24986004829 0.0386363938451
0.754109025002 1.24985003471 0.0329559966922
0.803735971451 1.24984800816 0.0272743999958
-0.189311996102 1.29999995232 0.140725195408
-0.139664009213 1.29999995232 0.13506449759
-0.0900109931827 1.29999995232 0.12940402329
-0.0403549969196 1.29999995232 0.123742356896
0.00930500030518 1.29999995232 0.11807872355
0.0589690059423 1.29999995232 0.112413093448
0.108635008335 1.29999995232 0.1067456007
0.158302992582 1.29999995232 0.101076200604
0.207969009876 1.29999995232 0.0954052954912
0.257631987333 1.29999995232 0.0897329971194
0.307292997837 1.29999995232 0.0840594917536
0.356950998306 1.29999995232 0.0783848017454
0.406606018543 1.29999995232 0.0727090984583
0.45625898242 1.29999995232 0.0670323967934
0.505909979343 1.29999995232 0.0613546967506
0.555557966232 1.29999995232 0.0556760951877
0.605204999447 1.29999995232 0.0499963983893
0.654849052429 1.29999995232 0.0443158000708
0.704481959343 1.29999995232 0.0386317968369
0.754107952118 1.29999995232 0.032949000597
0.803735017776 1.29999995232 0.0272668004036
0.0178500004113 0.0 0.156215652823
0.0666787996888 0.0 0.150950402021
0.115808598697 0.0 0.145698800683
0.165198609233 0.0 0.140294790268
0.214809402823 0.0 0.134655192494
0.264453411102 0.0 0.128800496459
0.313604801893 0.0 0.122419402003
0.361179798841 0.0 0.114629596472
0.405539155006 0.0 0.105647996068
0.444851756096 0.0 0.0958553999662
0.478892087936 0.0 0.0862615928054
0.508351504803 0.0 0.0776617974043
0.53439950943 0.0 0.0695519968867
0.557525873184 0.0 0.0625372976065
0.578193962574 0.0 0.0573249980807
0.600126028061 0.0 0.051927998662
0.619960010052 0.0 0.0448749959469
0.634136021137 0.0 0.0391989946365
0.646502971649 0.0 0.0365319997072
0.657778024673 0.0 0.0365899950266
0.671007037163 0.0 0.0360329970717
0.0182125996798 0.0520714707673 0.156292453408
0.0670130029321 0.0514407418668 0.150941878557
0.116109997034 0.0508978106081 0.145628497005
0.165371909738 0.0504495240748 0.140213295817
0.214691206813 0.0502858459949 0.134595900774
0.263757288456 0.0508408471942 0.128609195352
0.311833918095 0.0531676709652 0.121856294572
0.357507497072 0.058706022799 0.113778501749
0.398474544287 0.0701441988349 0.104044698179
0.432890385389 0.0901765972376 0.094090692699
0.461998790503 0.115670099854 0.0859490931034
0.488781899214 0.142572700977 0.0797294974327
0.515240132809 0.167732000351 0.0751840993762
0.543058991432 0.188917994499 0.0711602941155
0.572959005833 0.204745993018 0.0663909986615
0.600573003292 0.23046900332 0.0626601949334
0.6283659935 0.261399000883 0.061079993844
0.659500002861 0.277550011873 0.0593449994922
0.690864980221 0.284373998642 0.0568129941821
0.721588015556 0.284950017929 0.0535139963031
0.748782992363 0.278454005718 0.0498339980841
0.0194396004081 0.104331128299 0.156365558505
0.0679612010717 0.103055484593 0.150736033916
0.116827502847 0.102236613631 0.145259797573
0.165583610535 0.101941794157 0.139579698443
0.213599398732 0.102741271257 0.133435189724
0.260119497776 0.105104058981 0.12647819519
0.304225325584 0.111154600978 0.118138894439
0.343028575182 0.12559440732 0.107884600759
0.374591201544 0.150552809238 0.0979095995426
0.399580478668 0.186475500464 0.0903568938375
0.423317193985 0.224351003766 0.0857444927096
0.448951005936 0.258138000965 0.0832887962461
0.478586018085 0.283955991268 0.0818476974964
0.511785984039 0.303075015545 0.079736597836
0.544089972973 0.324523001909 0.0775574967265
0.576802968979 0.346255987883 0.0767503976822
0.613903999329 0.361444979906 0.076718993485
0.655122041702 0.371057003736 0.07560839504
0.698507964611 0.374639987946 0.0725434944034
0.742344021797 0.374103993177 0.0681438967586
0.785647988319 0.369820982218 0.0635289996862
0.0217956006527 0.15769328177 0.155755400658
0.0693442001939 0.155908301473 0.149464592338
0.117165401578 0.155689001083 0.143471390009
0.163856104016 0.157427087426 0.136399999261
0.208335444331 0.162277013063 0.127740696073
0.248846083879 0.171576201916 0.117690198123
0.283600598574 0.187160506845 0.107392594218
0.312153786421 0.213955208659 0.0988172963262
0.33495131135 0.254164010286 0.0930656939745
0.356476694345 0.299381017685 0.0903035998344
0.382561981678 0.336122989655 0.0896371975541
0.413941025734 0.363034009933 0.0894130989909
0.449404031038 0.38226300478 0.0882683992386
0.485596954823 0.398647010326 0.0867860987782
0.522859990597 0.414110004902 0.0861382931471
0.563930988312 0.425215005875 0.0854047983885
0.607918024063 0.43147200346 0.0834168940783
0.653470039368 0.434655994177 0.080237492919
0.700101971626 0.435645014048 0.0760184973478
0.746937990189 0.434624016285 0.0709930956364
0.792990982533 0.431582003832 0.0660060942173
0.0250390991569 0.214726105332 0.151946887374
0.0699760019779 0.213535696268 0.144477397203
0.113738104701 0.217168301344 0.136418297887
0.153730332851 0.226169899106 0.126282602549
0.188737109303 0.241959705949 0.115576297045
0.218073993921 0.267270505428 0.106466591358
0.242927715182 0.301360994577 0.100656397641
0.266020298004 0.339174002409 0.098206192255
0.289712011814 0.378663003445 0.098180398345
0.317870974541 0.412348002195 0.0991394966841
0.351581990719 0.43650200963 0.0993887931108
0.389284014702 0.452736973763 0.0983153954148
0.428812026978 0.465364992619 0.0966043993831
0.470051974058 0.476612985134 0.0951524972916
0.513939023018 0.484143018723 0.0934438928962
0.559630990028 0.488445997238 0.0907176956534
0.606523036957 0.490724027157 0.0869712978601
0.654152035713 0.491411030293 0.0824615955353
0.702044010162 0.491029977798 0.0774168968201
0.750003993511 0.48989802599 0.0719495937228
0.79785400629 0.487470984459 0.0664928928018
0.0272592008114 0.286987900734 0.13915990293
0.0631150975823 0.292251110077 0.131396591663
0.0947772786021 0.307172000408 0.122402995825
0.122114405036 0.331191807985 0.114995397627
0.145732194185 0.363508999348 0.11053609848
0.168488502502 0.399140000343 0.108873993158
0.193231016397 0.433324992657 0.109060898423
0.221856996417 0.46220600605 0.109917297959
0.254828006029 0.484602987766 0.110820800066
0.291985988617 0.502207040787 0.110795095563
0.332356989384 0.516440033913 0.109474793077
0.37461400032 0.527065038681 0.107056997716
0.418339014053 0.534904956818 0.104493901134
0.463845968246 0.540053963661 0.10170789808
0.51077902317 0.543097019196 0.0980325937271
0.558631002903 0.544652998447 0.0936111956835
0.606943011284 0.545152008533 0.0887102931738
0.655451059341 0.544909000397 0.0834621936083
0.703970968723 0.544146001339 0.0779328942299
0.752535998821 0.542657971382 0.0722011998296
0.800999999046 0.540459990501 0.0665228962898
-0.000472442014143 0.404489010572 0.132213398814
0.0236326009035 0.419466018677 0.128606393933
0.0459941029549 0.441138029099 0.125527590513
0.0692500025034 0.466829001904 0.123995296657
0.0950900018215 0.493005007505 0.123532891273
0.12428599596 0.517279982567 0.12343659997
0.157433018088 0.537402033806 0.12316429615
0.194315999746 0.553557038307 0.122447595
0.234678000212 0.565324008465 0.120921298862
0.277157008648 0.574594020844 0.118769995868
0.321157991886 0.58266299963 0.116259291768
0.366731017828 0.589213013649 0.11321939528
0.41369202733 0.59363502264 0.109572395682
0.46157798171 0.595972001553 0.105155296624
0.510033965111 0.597061991692 0.100226998329
0.558827996254 0.59744399786 0.0949802994728
0.607791006565 0.597306013107 0.0894879996777
0.656760036945 0.59682404995 0.0838454961777
0.705719947815 0.595914006233 0.0780844986439
0.75460600853 0.594496011734 0.0722546949983
0.80323600769 0.592800021172 0.0664806962013
-0.0660915970802 0.522881984711 0.146863892674
-0.0365741960704 0.538024008274 0.14373870194
-0.00636699795723 0.555135965347 0.140811398625
0.0255480036139 0.572926998138 0.138584092259
0.0599360018969 0.589684009552 0.136819198728
0.0971450060606 0.604416012764 0.135135993361
0.137153014541 0.616382002831 0.133113101125
0.179628998041 0.625153005123 0.130460202694
0.223802998662 0.631734013557 0.127280503511
0.269151985645 0.637095987797 0.123812392354
0.315612018108 0.641535997391 0.120259396732
0.363167017698 0.644858956337 0.116304799914
0.411613017321 0.646935999393 0.111639693379
0.460611969233 0.648025035858 0.106459394097
0.509853005409 0.648483037949 0.101025894284
0.559206008911 0.648519992828 0.0954311937094
0.608543992043 0.648290038109 0.0897437930107
0.657836019993 0.64782500267 0.0839841961861
0.707046985626 0.647045969963 0.0781559944153
0.756091952324 0.646046996117 0.0722912997007
0.804934978485 0.644820988178 0.066466294229
-0.108608998358 0.614907026291 0.157102569938
-0.0738489925861 0.628539025784 0.153898701072
-0.0380709990859 0.642274022102 0.150707423687
-0.000350996851921 0.654909968376 0.147806897759
0.0396289974451 0.665794014931 0.145087599754
0.0817929953337 0.674584031105 0.142239302397
0.125898018479 0.681605994701 0.139006897807
0.171370998025 0.686891019344 0.135282188654
0.217790007591 0.690811991692 0.131211295724
0.265051990747 0.693747997284 0.126922190189
0.313080996275 0.695985019207 0.122402593493
0.361768007278 0.697489023209 0.117504492402
0.410907030106 0.698321998119 0.112288095057
0.460305988789 0.698720991611 0.106829695404
0.509847998619 0.698845028877 0.101218700409
0.559432983398 0.698817014694 0.0955429971218
0.60899502039 0.698671996593 0.0898242965341
0.658495008945 0.698366045952 0.0840590000153
0.707873940468 0.697896003723 0.0782387927175
0.757108986378 0.697250962257 0.0723869949579
0.806169986725 0.696404993534 0.0665773972869
-0.136248007417 0.695989966393 0.164631977677
-0.0982519984245 0.706452012062 0.160869300365
-0.0581960007548 0.716078996658 0.15722104907
-0.0161059945822 0.724390983582 0.153806835413
0.0277410000563 0.731132030487 0.150301188231
0.0730589926243 0.736312031746 0.146545991302
0.11945001781 0.740275025368 0.142469599843
0.166724994779 0.743363022804 0.138083189726
0.214682012796 0.74557197094 0.133415192366
0.263153970242 0.747056007385 0.128487497568
0.312043994665 0.747991979122 0.123314894736
0.361275017262 0.748567998409 0.117965191603
0.410728037357 0.748867988586 0.112479194999
0.460300981998 0.748965024948 0.106886796653
0.509925961494 0.748953998089 0.101235494018
0.559565007687 0.74890601635 0.0955533981323
0.609202027321 0.748824000359 0.0898450985551
0.658804059029 0.748680949211 0.0841091945767
0.708329975605 0.748440027237 0.0783368945122
0.757748961449 0.748070001602 0.0725400000811
0.807030022144 0.747539997101 0.0667742937803
-0.156126007438 0.768487989902 0.169264346361
-0.11412499845 0.776131987572 0.165652051568
-0.0705269947648 0.781435966492 0.161748170853
-0.0254009962082 0.78618401289 0.157749176025
0.0209160000086 0.790045976639 0.153614491224
0.0681219995022 0.792991042137 0.149197101593
0.116014018655 0.795161008835 0.144524991512
0.164416000247 0.796764969826 0.139619395137
0.213236004114 0.797870993614 0.134482502937
0.262358993292 0.798527956009 0.129148095846
0.311689019203 0.798868000507 0.123675696552
0.361164033413 0.799021959305 0.118132099509
0.410743027925 0.799075007439 0.112527698278
0.46037197113 0.799066007137 0.106878496706
0.510015010834 0.799036979675 0.101207397878
0.55966001749 0.798992037773 0.0955251976848
0.609305024147 0.798927009106 0.0898335948586
0.658946037292 0.798853993416 0.0841315984726
0.708554983139 0.798743963242 0.0784114971757
0.75810700655 0.798563957214 0.0726746991277
0.807564020157 0.798269987106 0.0669611990452
-0.169147998095 0.831402003765 0.173105090857
-0.123757004738 0.837275028229 0.169025599957
-0.0774840041995 0.840798974037 0.164833605289
-0.0305709987879 0.843137025833 0.160410031676
0.0172270089388 0.84505200386 0.155675306916
0.0655879974365 0.846580982208 0.150747552514
0.114329010248 0.847686052322 0.145641699433
0.163381993771 0.848437011242 0.140362396836
0.212664008141 0.848906040192 0.134941101074
0.262100994587 0.849148035049 0.129413992167
0.311626017094 0.849237024784 0.123817399144
0.361205995083 0.849231004715 0.118181198835
0.410817027092 0.849191009998 0.112522900105
0.460448980331 0.849156022072 0.106852397323
0.510089993477 0.849127054214 0.101175896823
0.559736967087 0.849084019661 0.0954959988594
0.609382033348 0.849030017853 0.0898145958781
0.659026026726 0.848972022533 0.084130898118
0.708662986755 0.848914980888 0.0784427970648
0.758284986019 0.848834991455 0.0727489963174
0.807865023613 0.848691999912 0.0670688971877
-0.176439002156 0.888845026493 0.176424100995
-0.129477009177 0.892848014832 0.171736702323
-0.0815399959683 0.895509004593 0.167029842734
-0.0331819951534 0.89691901207 0.162055745721
0.0154210031033 0.89776301384 0.156897202134
0.0643710047007 0.898441016674 0.151590108871
0.113593012094 0.898899018764 0.146172896028
0.162983000278 0.899191021919 0.140680193901
0.212485998869 0.899347066879 0.135116100311
0.262054979801 0.899407982826 0.129500195384
0.311662018299 0.89940404892 0.123849794269
0.361280024052 0.899363994598 0.118178591132
0.410899043083 0.899313032627 0.11249999702
0.460523962975 0.899266004562 0.10682310164
0.51015996933 0.899222016335 0.101147100329
0.559804022312 0.899181008339 0.0954707935452
0.609449028969 0.899134039879 0.0897938981652
0.659090995789 0.899084031582 0.0841163992882
0.708732008934 0.899031996727 0.0784377977252
0.758373975754 0.898975014687 0.0727572962642
0.808009028435 0.898902058601 0.0670795962214
-0.180579006672 0.943825960159 0.178323090076
-0.132471010089 0.946071982384 0.173276394606
-0.0836999937892 0.947564959526 0.168176621199
-0.0346449911594 0.94855594635 0.162882432342
0.0145540088415 0.949070990086 0.157461732626
0.0638770014048 0.949301958084 0.15196081996
0.113329008222 0.949438989162 0.146400496364
0.162868991494 0.949510931969 0.14079579711
0.212459012866 0.949537992477 0.135165199637
0.262077987194 0.949528932571 0.129510998726
0.311708003283 0.949501991272 0.123840093613
0.36133903265 0.949468970299 0.118161395192
0.410967022181 0.949427008629 0.112480796874
0.460596978664 0.949378967285 0.106801599264
0.510228991508 0.949329972267 0.101125694811
0.559867978096 0.949283957481 0.0954509973526
0.60951000452 0.949240982533 0.0897754952312
0.659153044224 0.949194967747 0.084098495543
0.708794951439 0.94914495945 0.0784197971225
0.758435964584 0.949091970921 0.0727402940392
0.80807697773 0.949032962322 0.0670608952641
-0.182787001133 0.996734023094 0.17927159369
-0.133933007717 0.99790096283 0.173970401287
-0.0847500041127 0.998690009117 0.168669879436
-0.0353740006685 0.999215006828 0.163235500455
0.0141289979219 0.999513030052 0.157693594694
0.063684001565 0.999634981155 0.152097657323
0.113260015845 0.999660968781 0.14647129178
0.162858992815 0.999657988548 0.14082609117
0.212479010224 0.999639987946 0.135166600347
0.262111008167 0.999612987041 0.129497691989
0.311747014523 0.999586999416 0.123823598027
0.361383020878 0.999557971954 0.118146792054
0.411020040512 0.999523997307 0.112468294799
0.460655987263 0.99948400259 0.106789693236
0.510290980339 0.999439954758 0.101111896336
0.559927999973 0.99939596653 0.0954360961914
0.609569013119 0.999351024628 0.0897601991892
0.659211039543 0.999305963516 0.084082596004
0.708851993084 0.999261021614 0.078403994441
0.758493006229 0.99921298027 0.072725199163
0.808130025864 0.999161958694 0.0670466944575
-0.183895006776 1.04826998711 0.179777503014
-0.134654998779 1.0488910675 0.174345493317
-0.0852149948478 1.04928898811 0.168897718191
-0.0356639921665 1.04952692986 0.163374871016
0.0139549970627 1.0496519804 0.157780408859
0.0635969936848 1.04971599579 0.152143761516
0.113234013319 1.04974400997 0.146487697959
0.162864997983 1.04973697662 0.140825003386
0.212501004338 1.04971396923 0.135156095028
0.262138009071 1.04969000816 0.12948410213
0.311778008938 1.04966592789 0.123810201883
0.361419022083 1.04963994026 0.118134997785
0.411061018705 1.0496109724 0.112458691001
0.460701972246 1.04957795143 0.106781497598
0.510342001915 1.04954099655 0.101103395224
0.559982001781 1.04949998856 0.0954255983233
0.609623014927 1.04945898056 0.0897478982806
0.659263014793 1.04941892624 0.0840693935752
0.708902955055 1.04937899113 0.0783902928233
0.758542001247 1.04933798313 0.0727110952139
0.808179020882 1.04929304123 0.0670320987701
-0.184439003468 1.09910297394 0.180121302605
-0.13497300446 1.09939301014 0.174574196339
-0.085399992764 1.09957003593 0.169023439288
-0.0357690006495 1.09966802597 0.163430869579
0.0138899981976 1.09972500801 0.157801479101
0.0635489970446 1.0997710228 0.152151793242
0.113206014037 1.09979403019 0.146487802267
0.162859991193 1.09979403019 0.140817791224
0.212508007884 1.09977900982 0.135146796703
0.262154996395 1.09976005554 0.129474297166
0.311801016331 1.09973907471 0.123800694942
0.361447006464 1.0997159481 0.118125997484
0.4110930264 1.09969198704 0.112450301647
0.460737973452 1.09966504574 0.106773391366
0.510383009911 1.099635005 0.101095601916
0.56002497673 1.09960198402 0.0954166948795
0.609665989876 1.0995670557 0.089737392962
0.659306049347 1.09953308105 0.0840581953526
0.708945989609 1.0994989872 0.0783787965775
0.758584022522 1.09946393967 0.0726991966367
0.808220982552 1.09942507744 0.0670199990273
-0.184670999646 1.14954006672 0.180326402187
-0.135094001889 1.14965605736 0.174710094929
-0.0854599997401 1.14971995354 0.16909237206
-0.0358039885759 1.14975595474 0.163455232978
0.0138570070267 1.14979398251 0.15780544281
0.0635219961405 1.1498260498 0.152145549655
0.113187015057 1.14984297752 0.146480098367
0.162848994136 1.14984607697 0.140811294317
0.212508007884 1.14983797073 0.135140091181
0.262162983418 1.14982402325 0.129467591643
0.311816006899 1.1498080492 0.123793795705
0.361467003822 1.1497900486 0.118118792772
0.411117017269 1.14977097511 0.112442597747
0.460765957832 1.14974999428 0.106765195727
0.510412991047 1.14972698689 0.101086601615
0.560057997704 1.14970207214 0.0954072996974
0.609700024128 1.14967608452 0.0897276997566
0.659341037273 1.14964795113 0.0840481966734
0.708979964256 1.14962100983 0.0783682987094
0.758617997169 1.14959096909 0.0726877972484
0.808254003525 1.14955997467 0.0670076981187
-0.184757992625 1.19977092743 0.180421590805
-0.135127007961 1.1998039484 0.174769595265
-0.0854750052094 1.19981896877 0.169118896127
-0.0358189940453 1.19983899593 0.163464069366
0.0138420015574 1.19986200333 0.157804399729
0.0635070055723 1.19988203049 0.152141273022
0.113175004721 1.19989395142 0.146475195885
0.16284199059 1.19989693165 0.140806391835
0.212506011128 1.19989299774 0.13513559103
0.262166976929 1.19988393784 0.129463091493
0.3118250072 1.19987297058 0.123788997531
0.361481010914 1.19986104965 0.118113495409
0.411134004593 1.19984793663 0.112436696887
0.460785984993 1.19983398914 0.106758698821
0.510434985161 1.19981896877 0.101079694927
0.560081005096 1.19980192184 0.0953997001052
0.609724998474 1.19978404045 0.0897189974785
0.65936601162 1.19976294041 0.0840383991599
0.709005951881 1.19974303246 0.0783572942019
0.758642971516 1.19972193241 0.0726749971509
0.808274030685 1.19970500469 0.0669925957918
-0.184781998396 1.24990105629 0.180445000529
-0.13513199985 1.2499049902 0.174784496427
-0.0854809954762 1.24990999699 0.169125527143
-0.0358249992132 1.24992001057 0.163466110826
0.0138349980116 1.24993097782 0.157803952694
0.0635010004044 1.24993991852 0.15213958919
0.113169014454 1.24994599819 0.146472990513
0.162837997079 1.24994802475 0.140804201365
0.212505012751 1.24994695187 0.135133296251
0.262169003487 1.24994301796 0.129460498691
0.311829984188 1.2499370575 0.123786196113
0.361488997936 1.24993097782 0.11811029911
0.411144018173 1.24992501736 0.112433195114
0.46079698205 1.24991703033 0.106754794717
0.510447978973 1.24990999699 0.101075291634
0.560096025467 1.24990200996 0.0953945964575
0.609742045403 1.24989199638 0.0897123962641
0.659383058548 1.24987792969 0.0840288996696
0.709019958973 1.24986600876 0.0783450976014
0.758653998375 1.24986004829 0.07266099751
0.808282971382 1.24985396862 0.0669760927558
-0.184782996774 1.29999995232 0.180444598198
-0.135133996606 1.29999995232 0.174785599113
-0.0854829922318 1.29999995232 0.169126838446
-0.0358269959688 1.29999995232 0.163466319442
0.013833001256 1.29999995232 0.157803833485
0.0634990036488 1.29999995232 0.152139246464
0.113167017698 1.29999995232 0.146472498775
0.162836998701 1.29999995232 0.140803590417
0.212503999472 1.29999995232 0.135132595897
0.262169986963 1.29999995232 0.129459694028
0.311832010746 1.29999995232 0.123785197735
0.361491024494 1.29999995232 0.118109196424
0.411147028208 1.29999995232 0.112431995571
0.460800975561 1.29999995232 0.106753498316
0.510451972485 1.29999995232 0.101073801517
0.560101032257 1.29999995232 0.0953928977251
0.609748005867 1.29999995232 0.0897099971771
0.65939104557 1.29999995232 0.084024399519
0.709023952484 1.29999995232 0.0783386975527
0.758656024933 1.29999995232 0.072654299438
0.808286011219 1.29999995232 0.066968396306
0.0220116004348 0.0 0.195290923119
0.0708924010396 0.0 0.190211638808
0.120098501444 0.0 0.185152500868
0.169660300016 0.0 0.179925903678
0.219540506601 0.0 0.174275606871
0.269622206688 0.0 0.167942911386
0.319404602051 0.0 0.160189807415
0.368147104979 0.0 0.150397002697
0.413437396288 0.0 0.137999296188
0.453126966953 0.0 0.12460359931
0.487268388271 0.0 0.111862003803
0.516106903553 0.0 0.0999120026827
0.541085839272 0.0 0.089064002037
0.56268787384 0.0 0.0793239995837
0.582349002361 0.0 0.0730990022421
0.604366004467 0.0 0.0667140036821
0.62391602993 0.0 0.0563939958811
0.63682103157 0.0 0.0488830059767
0.647890985012 0.0 0.0457050055265
0.659114956856 0.0 0.0461490005255
0.673114001751 0.0 0.0465660095215
0.0224920008332 0.0520850419998 0.195334777236
0.0713232010603 0.0514944009483 0.190135926008
0.120487898588 0.051083240658 0.184940397739
0.169874101877 0.0506748817861 0.179586708546
0.219424009323 0.0505914501846 0.173839896917
0.268918693066 0.0515900701284 0.167121499777
0.317798405886 0.0547893717885 0.15853831172
0.364073783159 0.0610859021544 0.147621810436
0.405587166548 0.0725615993142 0.135148912668
0.440042555332 0.0918636992574 0.122051306069
0.467968910933 0.116735905409 0.111077405512
0.493504315615 0.142953693867 0.103120401502
0.519312798977 0.167217999697 0.0973990038037
0.547135949135 0.187840998173 0.0931600034237
0.577372968197 0.20158199966 0.0870380029082
0.604426980019 0.226003989577 0.0816799998283
0.631287992001 0.257196009159 0.0813410058618
0.661994040012 0.273394018412 0.0808340013027
0.693217992783 0.27973601222 0.0786880031228
0.723595023155 0.279655009508 0.075385004282
0.750460028648 0.273021996021 0.0712590068579
0.0241944994777 0.10482019186 0.195095077157
0.0726177990437 0.103567548096 0.189490109682
0.121538601816 0.103111483157 0.183817997575
0.170456811786 0.103443562984 0.177357897162
0.218628406525 0.105149053037 0.169923394918
0.265575706959 0.108122885227 0.16186620295
0.31032282114 0.115092605352 0.151834905148
0.349289625883 0.130580097437 0.138696908951
0.380106419325 0.153982803226 0.125395298004
0.403358787298 0.18809530139 0.114926703274
0.425821393728 0.224871993065 0.109138600528
0.450925827026 0.257901012897 0.106734201312
0.480472028255 0.283538013697 0.106124803424
0.514222979546 0.301268011332 0.104566305876
0.546492993832 0.321476995945 0.10287630558
0.578603982925 0.343212991953 0.104306705296
0.615808010101 0.358056008816 0.10715970397
0.657700002193 0.367731004953 0.108265399933
0.701612949371 0.37149900198 0.106415204704
0.745528995991 0.370927989483 0.102437101305
0.788591980934 0.366587996483 0.0979000031948
0.027680799365 0.15972097218 0.19331663847
0.0747683048248 0.157991424203 0.186607196927
0.122404903173 0.158602297306 0.179549306631
0.169369012117 0.161512508988 0.170855000615
0.214286908507 0.167433604598 0.159925609827
0.254564702511 0.177014797926 0.146879404783
0.288395106792 0.190997213125 0.134191811085
0.316115796566 0.214674413204 0.123390100896
0.337469309568 0.253844022751 0.114929400384
0.358053296804 0.298705011606 0.111756801605
0.383915990591 0.334502011538 0.112625800073
0.415522992611 0.360612004995 0.114550806582
0.451330006123 0.379482001066 0.114904604852
0.487288981676 0.395947992802 0.114649303257
0.524428963661 0.411172002554 0.116521604359
0.565917015076 0.422179996967 0.118402406573
0.610482990742 0.428768008947 0.118043504655
0.656569004059 0.432415008545 0.116045601666
0.70369297266 0.433744013309 0.112539306283
0.750679016113 0.432884007692 0.107669703662
0.796559989452 0.429848998785 0.102601200342
0.0322098992765 0.219733506441 0.186483308673
0.0762794017792 0.218544706702 0.177946805954
0.119699299335 0.222600504756 0.167579799891
0.15959250927 0.231507301331 0.154435008764
0.193575277925 0.246305704117 0.140380501747
0.221480607986 0.270070999861 0.128194600344
0.245521306992 0.30183801055 0.119937703013
0.268011599779 0.33733099699 0.11680110544
0.291094005108 0.376040995121 0.118685103953
0.31918400526 0.409462988377 0.122647799551
0.35329002142 0.433278024197 0.125570893288
0.39120900631 0.449438989162 0.126396507025
0.430608034134 0.46199297905 0.126810312271
0.472089976072 0.473147988319 0.127988606691
0.516438961029 0.481006979942 0.128061801195
0.56251001358 0.485873997211 0.126538693905
0.609814047813 0.488776028156 0.123886100948
0.657858014107 0.48996001482 0.120034605265
0.706043958664 0.489916026592 0.115305401385
0.754132986069 0.489019989967 0.110097706318
0.801973998547 0.486634016037 0.104787901044
0.0327664986253 0.292218595743 0.167467296124
0.0683829039335 0.296828001738 0.157400205731
0.0993316248059 0.310147792101 0.145394295454
0.125478610396 0.332558512688 0.13545191288
0.148258000612 0.363218992949 0.129592701793
0.17066809535 0.397301018238 0.128095299006
0.194906011224 0.430766999722 0.130079507828
0.223196998239 0.459592998028 0.133474603295
0.256331026554 0.481364011765 0.13700979948
0.293738007545 0.498899996281 0.139677003026
0.3344810009 0.512956023216 0.14052939415
0.377014011145 0.523895025253 0.140083104372
0.421072006226 0.531857967377 0.138890206814
0.466794967651 0.537174999714 0.137178808451
0.513966977596 0.540848016739 0.134818792343
0.562234997749 0.542997002602 0.13139051199
0.610877037048 0.543971002102 0.126978695393
0.659591019154 0.544077038765 0.121983803809
0.708299994469 0.543563961983 0.116668105125
0.75697696209 0.542232036591 0.111049301922
0.805458009243 0.54007601738 0.105361200869
0.00236386992037 0.404320001602 0.154143407941
0.0267211999744 0.418799012899 0.149563908577
0.0490562021732 0.439529001713 0.146136507392
0.0720544084907 0.464423000813 0.145356804132
0.0975250005722 0.490070015192 0.146314904094
0.126417994499 0.514075040817 0.148227706552
0.159446015954 0.533966004848 0.150118604302
0.196356996894 0.549937009811 0.151762902737
0.236870005727 0.561918020248 0.152335807681
0.279533982277 0.571493029594 0.151900097728
0.323741018772 0.579827010632 0.150979503989
0.36972501874 0.586475968361 0.149394005537
0.417083024979 0.591398000717 0.146805807948
0.465324997902 0.594521045685 0.143247008324
0.514063000679 0.595928013325 0.138712003827
0.562990009785 0.596572041512 0.133719101548
0.612066984177 0.596696972847 0.128478601575
0.661195993423 0.596397042274 0.122987501323
0.710290968418 0.5955940485 0.117262706161
0.759232997894 0.594233036041 0.111312605441
0.807865023613 0.592544019222 0.10537840426
-0.0628580972552 0.521579027176 0.17289210856
-0.0332498960197 0.536314964294 0.169942498207
-0.00298799574375 0.552864015102 0.167506799102
0.0285410061479 0.570330023766 0.166200697422
0.0625960081816 0.5867369771 0.165799900889
0.0996849983931 0.601323008537 0.165763795376
0.139739006758 0.613276958466 0.165350109339
0.182371988893 0.622184991837 0.164100304246
0.226637005806 0.628952980042 0.162062495947
0.272118985653 0.634678006172 0.159847304225
0.318867981434 0.639508008957 0.157246604562
0.366724014282 0.643306970596 0.154103502631
0.415465027094 0.645959019661 0.150275409222
0.464763969183 0.647374033928 0.145613208413
0.514200985432 0.648051977158 0.14041531086
0.563660979271 0.648247003555 0.134923994541
0.613086998463 0.648059010506 0.129238903522
0.662442028522 0.647596955299 0.123425506055
0.711708962917 0.646822988987 0.117488905787
0.760774970055 0.645812034607 0.111471004784
0.809615015984 0.644585967064 0.105530701578
-0.105167999864 0.6124330163 0.186876803637
-0.070336997509 0.626447021961 0.18390160799
-0.0348360016942 0.640186011791 0.181304395199
0.00265300273895 0.652478992939 0.179420605302
0.0424780100584 0.663221001625 0.177866503596
0.0846689939499 0.671988010406 0.176259204745
0.128936007619 0.679172992706 0.174172103405
0.174584001303 0.684689044952 0.171390399337
0.221177011728 0.688920974731 0.168154805899
0.268611967564 0.69211602211 0.164582103491
0.316832005978 0.694799005985 0.160739809275
0.365756005049 0.696805000305 0.156445205212
0.415128022432 0.697906017303 0.151580095291
0.464667975903 0.698485970497 0.146350905299
0.514303982258 0.698727011681 0.140879407525
0.563964009285 0.698727965355 0.135234504938
0.613587021828 0.698570966721 0.129480406642
0.663130998611 0.698240041733 0.123625099659
0.712536990643 0.697715044022 0.117692105472
0.761780023575 0.697023034096 0.111728206277
0.810842037201 0.696160018444 0.105813503265
-0.133095994592 0.694850981236 0.195456773043
-0.0953740030527 0.704789996147 0.192753076553
-0.0551550015807 0.714017987251 0.190430372953
-0.0130409896374 0.722277998924 0.188047602773
0.030865997076 0.728999018669 0.185540601611
0.0763099938631 0.734321951866 0.182642906904
0.122849017382 0.738523006439 0.179407894611
0.170343995094 0.741913974285 0.175782710314
0.218503013253 0.74441999197 0.171683505177
0.267132997513 0.74619603157 0.167209804058
0.31617000699 0.747491955757 0.162463098764
0.365550011396 0.748279988766 0.15739390254
0.415117025375 0.748721957207 0.152078002691
0.464768975973 0.74891102314 0.146574601531
0.514442980289 0.748934030533 0.140952110291
0.564118981361 0.748887002468 0.135268598795
0.613785982132 0.748790025711 0.12953749299
0.663413047791 0.748607993126 0.123749904335
0.712960004807 0.748314023018 0.117905899882
0.762380003929 0.747875988483 0.11201800406
0.81164598465 0.747321009636 0.106175005436
-0.153328001499 0.767372965813 0.203536748886
-0.11088500917 0.774742007256 0.200195789337
-0.0672890022397 0.779617011547 0.196993216872
-0.0221009999514 0.784379005432 0.193982601166
0.0243840068579 0.788426995277 0.190589264035
0.0717370063066 0.791628956795 0.186847507954
0.11982101202 0.794034004211 0.182723104954
0.168380990624 0.7959010005 0.178265199065
0.217352002859 0.797269999981 0.173520997167
0.266604989767 0.798148989677 0.168479904532
0.316036999226 0.798642039299 0.163199096918
0.365588009357 0.798904001713 0.157764703035
0.415218025446 0.799033999443 0.152223005891
0.464883983135 0.799062013626 0.146600201726
0.514551997185 0.799041032791 0.140929400921
0.564211010933 0.798994004726 0.135241806507
0.613871991634 0.798920989037 0.129544600844
0.66352802515 0.79882401228 0.123819105327
0.71314895153 0.798671007156 0.118056505919
0.762694001198 0.798435986042 0.112261906266
0.812130987644 0.798117041588 0.106497399509
-0.165623992682 0.829132020473 0.209696963429
-0.120159000158 0.835566043854 0.206087857485
-0.0737519934773 0.839398980141 0.202107995749
-0.0268419981003 0.841737031937 0.197952240705
0.0210300087929 0.843922972679 0.193846613169
0.0695589929819 0.845702052116 0.189347997308
0.118424013257 0.847056031227 0.184578299522
0.167598992586 0.848002016544 0.179593503475
0.216986998916 0.848625004292 0.174383103848
0.266505986452 0.848978996277 0.168986096978
0.316083014011 0.849135041237 0.163465499878
0.365697026253 0.849184989929 0.157871305943
0.415332019329 0.849184989929 0.152233302593
0.464979976416 0.849164009094 0.146570399404
0.514630973339 0.849138021469 0.140894904733
0.564283013344 0.849093019962 0.135213196278
0.61393404007 0.849032044411 0.129528611898
0.66358602047 0.848966002464 0.123838305473
0.713230967522 0.84888702631 0.118133604527
0.762847006321 0.848775029182 0.112409703434
0.812400996685 0.848613977432 0.106702901423
-0.172582000494 0.887372016907 0.213859304786
-0.125658005476 0.891388058662 0.209757387638
-0.0775919929147 0.894450068474 0.205581948161
-0.0290799885988 0.89610004425 0.200768589973
0.0195740014315 0.897085011005 0.195742458105
0.0685700029135 0.897950053215 0.190737172961
0.117894008756 0.898571014404 0.185562610626
0.16736599803 0.898989021778 0.180214002728
0.216925010085 0.899227023125 0.1747418046
0.266537994146 0.899345040321 0.169179096818
0.316172003746 0.899376034737 0.163552507758
0.365806013346 0.899356007576 0.157887607813
0.4154330194 0.899316012859 0.152210205793
0.465060979128 0.899275064468 0.146536111832
0.514699995518 0.899234056473 0.140864804387
0.564347982407 0.899191021919 0.135188907385
0.613994002342 0.899141013622 0.129509598017
0.663639008999 0.899087011814 0.123829700053
0.713282942772 0.899033010006 0.118148803711
0.762923002243 0.898975014687 0.112462803721
0.812548995018 0.898898005486 0.106780305505
-0.176484003663 0.942964971066 0.216664910316
-0.128414005041 0.945279955864 0.211955308914
-0.0796150043607 0.946977972984 0.207269921899
-0.0304119884968 0.948155999184 0.202243894339
0.0189020037651 0.948794007301 0.196934387088
0.0682860016823 0.949093937874 0.191484361887
0.117761015892 0.949285984039 0.185997009277
0.167334988713 0.949427008629 0.180461108685
0.2169560045 0.949497938156 0.174865394831
0.266595005989 0.949515938759 0.169228196144
0.316240012646 0.949499964714 0.163562998176
0.365878999233 0.949469983578 0.157882407308
0.415510028601 0.949429988861 0.152198910713
0.465138971806 0.949383974075 0.146517902613
0.51477098465 0.949337005615 0.140840411186
0.564409017563 0.949291944504 0.135165601969
0.614051997662 0.949247956276 0.129490494728
0.663696050644 0.949200987816 0.123813100159
0.713338971138 0.949151992798 0.118133805692
0.762979984283 0.94909799099 0.112454004586
0.812622010708 0.949041008949 0.106774903834
-0.178550004959 0.996238946915 0.218266099691
-0.129718005657 0.997501969337 0.213174909353
-0.080483995378 0.998404026031 0.208071440458
-0.0310319960117 0.9990260005 0.202802509069
0.0185550004244 0.999380946159 0.197365418077
0.0681650042534 0.99955701828 0.191802233458
0.117767006159 0.999616980553 0.186180904508
0.167371988297 0.999629020691 0.180541396141
0.217003002763 0.999630987644 0.174890905619
0.266644984484 0.99961400032 0.169224306941
0.316286981106 0.999589979649 0.163548603654
0.365926027298 0.99956202507 0.157870203257
0.415564030409 0.999526977539 0.152189701796
0.46519997716 0.999485015869 0.146508306265
0.514833986759 0.999442994595 0.140828996897
0.564471006393 0.999400019646 0.13515201211
0.61411100626 0.999356031418 0.129475399852
0.663754045963 0.999312996864 0.123797103763
0.713395953178 0.999267995358 0.118116900325
0.76303601265 0.999220013618 0.112435802817
0.812672972679 0.999168992043 0.106755904853
-0.179563000798 1.04799902439 0.219147697091
-0.130310997367 1.04864907265 0.213822409511
-0.0808380022645 1.04913198948 0.20848967135
-0.0312339961529 1.04943299294 0.2030390203
0.0184260010719 1.04960501194 0.197493910789
0.0681000053883 1.04969000816 0.191879436374
0.117760017514 1.04973304272 0.186225607991
0.167397990823 1.04973697662 0.180557996035
0.217037007213 1.04971599579 0.174886897206
0.266676992178 1.04969406128 0.169212400913
0.3163189888 1.049669981 0.163536995649
0.365961015224 1.04964399338 0.157860502601
0.415604025126 1.04961395264 0.152182400227
0.465245962143 1.04958105087 0.146503001451
0.514886021614 1.04954302311 0.140823706985
0.564526021481 1.04950296879 0.135144412518
0.614166975021 1.04946398735 0.129464104772
0.663807034492 1.04942500591 0.123783603311
0.713446974754 1.04938602448 0.118103004992
0.763085961342 1.04934406281 0.112422302365
0.812722980976 1.04929900169 0.106742605567
-0.180005997419 1.09893000126 0.21966470778
-0.130547001958 1.09925103188 0.214185103774
-0.0809539929032 1.09948706627 0.208696901798
-0.03129298985 1.09962999821 0.203141868114
0.0183909982443 1.09970808029 0.197527989745
0.068067997694 1.09976506233 0.191879466176
0.117734014988 1.09979498386 0.1862193048
0.167394995689 1.0997979641 0.180550798774
0.217047005892 1.09978401661 0.174878001213
0.266694992781 1.09976506233 0.169203609228
0.316341996193 1.09974300861 0.163528203964
0.365989029408 1.09972000122 0.157851800323
0.415636003017 1.09969496727 0.152174502611
0.465281963348 1.09966802597 0.146495804191
0.514926970005 1.09963798523 0.140815600753
0.564570009708 1.09960508347 0.135134398937
0.614210009575 1.09957194328 0.12945330143
0.66385102272 1.09953904152 0.12377230078
0.713490009308 1.09950494766 0.118091002107
0.763127982616 1.09947001934 0.112409703434
0.812765002251 1.0994310379 0.106729306281
-0.180179998279 1.14944696426 0.219965904951
-0.130611002445 1.1495770216 0.214379996061
-0.0809740051627 1.14967608452 0.208795309067
-0.0313009917736 1.14973700047 0.203175395727
0.0183739960194 1.14978706837 0.197529286146
0.0680460035801 1.1498260498 0.191873535514
0.117718011141 1.14984703064 0.186209797859
0.167383998632 1.14985108376 0.180541008711
0.217046007514 1.14984202385 0.174869507551
0.266703009605 1.14982795715 0.169195905328
0.316357016563 1.14981102943 0.163520693779
0.366008996964 1.14979302883 0.157844096422
0.415660023689 1.14977407455 0.152166098356
0.465309977531 1.14975404739 0.146486803889
0.514956951141 1.14973104 0.140806406736
0.564602017403 1.14970600605 0.135125204921
0.614244997501 1.14968001842 0.129443496466
0.663886010647 1.1496540308 0.123761504889
0.713524997234 1.14962697029 0.118079699576
0.763163983822 1.14959907532 0.112397000194
0.812798023224 1.14956903458 0.106714300811
-0.180237993598 1.19972991943 0.220110207796
-0.130616009235 1.19977200031 0.214473202825
-0.0809639915824 1.19980192184 0.208835959435
-0.0312999933958 1.19982898235 0.203185379505
0.018366008997 1.19985997677 0.1975286901
0.0680360049009 1.19988298416 0.191867768764
0.117706015706 1.19989693165 0.18620300293
0.167375996709 1.19989991188 0.180535003543
0.217043012381 1.19989597797 0.174863800406
0.266705989838 1.19988703728 0.169190406799
0.316366016865 1.19987595081 0.163515105844
0.366021990776 1.19986391068 0.157838195562
0.415677011013 1.19985103607 0.152159810066
0.465328991413 1.19983696938 0.146480098367
0.51497900486 1.19982194901 0.140799000859
0.56462597847 1.19980597496 0.135116904974
0.614270031452 1.19978797436 0.129434496164
0.663912057877 1.19976902008 0.123751804233
0.713552951813 1.19974994659 0.118068501353
0.763189971447 1.19973194599 0.112381599844
0.812821030617 1.19971501827 0.106695406139
-0.180253997445 1.24989199638 0.220159500837
-0.13060900569 1.24989795685 0.214502707124
-0.0809570029378 1.24990391731 0.208846107125
-0.0312999933958 1.24991703033 0.203187927604
0.0183629989624 1.24993002415 0.197527870536
0.068029999733 1.2499409914 0.191865295172
0.117701008916 1.24994802475 0.186199903488
0.167371988297 1.2499499321 0.180531606078
0.217041000724 1.24994802475 0.174860596657
0.266707986593 1.24994397163 0.16918720305
0.316370010376 1.24993896484 0.163511797786
0.366030007601 1.2499320507 0.157834708691
0.415687024593 1.24992597103 0.152155995369
0.465340971947 1.24991893768 0.146475806832
0.514991998672 1.24991095066 0.1407943964
0.564642012119 1.24990296364 0.135111510754
0.614288032055 1.24989497662 0.129427313805
0.663930058479 1.24988293648 0.123741202056
0.713567972183 1.2498729229 0.118055105209
0.763203024864 1.24986791611 0.112367600203
0.81283301115 1.24986100197 0.106679804623
-0.180256992579 1.29999995232 0.220165610313
-0.130607008934 1.29999995232 0.21450600028
-0.08095600456 1.29999995232 0.208847299218
-0.0312999933958 1.29999995232 0.203188449144
0.0183620005846 1.29999995232 0.197527736425
0.0680290013552 1.29999995232 0.191864639521
0.11769901216 1.29999995232 0.186199009418
0.167370989919 1.29999995232 0.1805306077
0.217041000724 1.29999995232 0.174859598279
0.266707986593 1.29999995232 0.169186204672
0.316372007132 1.29999995232 0.163510710001
0.366032004356 1.29999995232 0.157833501697
0.415690004826 1.29999995232 0.152154698968
0.465344965458 1.29999995232 0.146474406123
0.514997005463 1.29999995232 0.140792801976
0.564647018909 1.29999995232 0.135109692812
0.614295005798 1.29999995232 0.12942430377
0.663938045502 1.29999995232 0.123734399676
0.713570952415 1.29999995232 0.11804690212
0.763204991817 1.29999995232 0.112362205982
0.812838017941 1.29999995232 0.106674306095
CELLS 2000 18000
8 0 1 22 21 441 442 463 462 
8 1 2 23 22 442 443 464 463 
8 2 3 24 23 443 444 465 464 
8 3 4 25 24 444 445 466 465 
8 4 5 26 25 445 446 467 466 
8 5 6 27 26 446 447 468 467 
8 6 7 28 27 447 448 469 468 
8 7 8 29 28 448 449 470 469 
8 8 9 30 29 449 450 471 470 
8 9 10 31 30 450 451 472 471 
8 10 11 32 31 451 452 473 472 
8 11 12 33 32 452 453 474 473 
8 12 13 34 33 453 454 475 474 
8 13 14 35 34 454 455 476 475 
8 14 15 36 35 455 456 477 476 
8 15 16 37 36 456 457 478 477 
8 16 17 38 37 457 458 479 478 
8 17 18 39 38 458 459 480 479 
8 18 19 40 39 459 460 481 480 
8 19 20 41 40 460 461 482 481 
8 21 22 43 42 462 463 484 483 
8 22 23 44 43 463 464 485 484 
8 23 24 45 44 464 465 486 485 
8 24 25 46 45 465 466 487 486 
8 25 26 47 46 466 467 488 487 
8 26 27 48 47 467 468 489 488 
8 27 28 49 48 468 469 490 489 
8 28 29 50 49 469 470 491 490 
8 29 30 51 50 470 471 492 491 
8 30 31 52 51 471 472 493 492 
8 31 32 53 52 472 473 494 493 
8 32 33 54 53 473 474 495 494 
8 33 34 55 54 474 475 496 495 
8 34 35 56 55 475 476 497 496 
8 35 36 57 56 476 477 498 497 
8 36 37 58 57 477 478 499 498 
8 37 38 59 58 478 479 500 499 
8 38 39 60 59 479 480 501 500 
8 39 40 61 60 480 481 502 501 
8 40 41 62 61 481 482 503 502 
8 42 43 64 63 483 484 505 504 
8 43 44 65 64 484 485 506 505 
8 44 45 66 65 485 486 507 506 
8 45 46 67 66 486 487 508 507 
8 46 47 68 67 487 488 509 508 
8 47 48 69 68 488 489 510 509 
8 48 49 70 69 489 490 511 510 
8 49 50 71 70 490 491 512 511 
8 50 51 72 71 491 492 513 512 
8 51 52 73 72 492 493 514 513 
8 52 53 74 73 493 494 515 514 
8 53 54 75 74 494 495 516 515 
8 54 55 76 75 495 496 517 516 
8 55 56 77 76 496 497 518 517 
8 56 57 78 77 497 498 519 518 
8 57 58 79 78 498 499 520 519 
8 58 59 80 79 499 500 521 520 
8 59 60 81 80 500 501 522 521 
8 60 61 82 81 501 502 523 522 
8 61 62 83 82 502 503 524 523 
8 63 64 85 84 504 505 526 525 
8 64 65 86 85 505 506 527 526 
8 65 66 87 86 506 507 528 527 
8 66 67 88 87 507 508 529 528 
8 67 68 89 88 508 509 530 529 
8 68 69 90 89 509 510 531 530 
8 69 70 91 90 510 511 532 531 
8 70 71 92 91 511 512 533 532 
8 71 72 93 92 512 513 534 533 
8 72 73 94 93 513 514 535 534 
8 73 74 95 94 514 515 536 535 
8 74 75 96 95 515 516 537 536 
8 75 76 97 96 516 517 538 537 
8 76 77 98 97 517 518 539 538 
8 77 78 99 98 518 519 540 539 
8 78 79 100 99 519 520 541 540 
8 79 80 101 100 520 521 542 541 
8 80 81 102 101 521 522 543 542 
8 81 82 103 102 522 523 544 543 
8 82 83 104 103 523 524 545 544 
8 84 85 106 105 525 526 547 546 
8 85 86 107 106 526 527 548 547 
8 86 87 108 107 527 528 549 548 
8 87 88 109 108 528 529 550 549 
8 88 89 110 109 529 530 551 550 
8 89 90 111 110 530 531 552 551 
8 90 91 112 111 531 532 553 552 
8 91 92 113 112 532 533 554 553 
8 92 93 114 113 533 534 555 554 
8 93 94 115 114 534 535 556 555 
8 94 95 116 115 535 536 557 556 
8 95 96 117 116 536 537 558 557 
8 96 97 118 117 537 538 559 558 
8 97 98 119 118 538 539 560 559 
8 98 99 120 119 539 540 561 560 
8 99 100 121 120 540 541 562 561 
8 100 101 122 121 541 542 563 562 
8 101 102 123 122 542 543 564 563 
8 102 103 124 123 543 544 565 564 
8 103 104 125 124 544 545 566 565 
8 105 106 127 126 546 547 568 567 
8 106 107 128 127 547 548 569 568 
8 107 108 129 128 548 549 570 569 
8 108 109 130 129 549 550 571 570 
8 109 110 131 130 550 551 572 571 
8 110 111 132 131 551 552 573 572 
8 111 112 133 132 552 553 574 573 
8 112 113 134 133 553 554 575 574 
8 113 114 135 134 554 555 576 575 
8 114 115 136 135 555 556 577 576 
8 115 116 137 136 556 557 578 577 
8 116 117 138 137 557 558 579 578 
8 117 118 139 138 558 559 580 579 
8 118 119 140 139 559 560 581 580 
8 119 120 141 140 560 561 582 581 
8 120 121 142 141 561 562 583 582 
8 121 122 143 142 562 563 584 583 
8 122 123 144 143 563 564 585 584 
8 123 124 145 144 564 565 586 585 
8 124 125 146 145 565 566 587 586 
8 126 127 148 147 567 568 589 588 
8 127 128 149 148 568 569 590 589 
8 128 129 150 149 569 570 591 590 
8 129 130 151 150 570 571 592 591 
8 130 131 152 151 571 572 593 592 
8 131 132 153 152 572 573 594 593 
8 132 133 154 153 573 574 595 594 
8 133 134 155 154 574 575 596 595 
8 134 135 156 155 575 576 597 596 
8 135 136 157 156 576 577 598 597 
8 136 137 158 157 577 578 599 598 
8 137 138 159 158 578 579 600 599 
8 138 139 160 159 579 580 601 600 
8 139 140 161 160 580 581 602 601 
8 140 141 162 161 581 582 603 602 
8 141 142 163 162 582 583 604 603 
8 142 143 164 163 583 584 605 604 
8 143 144 165 164 584 585 606 605 
8 144 145 166 165 585 586 607 606 
8 145 146 167 166 586 587 608 607 
8 147 148 169 168 588 589 610 609 
8 148 149 170 169 589 590 611 610 
8 149 150 171 170 590 591 612 611 
8 150 151 172 171 591 592 613 612 
8 151 152 173 172 592 593 614 613 
8 152 153 174 173 593 594 615 614 
8 153 154 175 174 594 595 616 615 
8 154 155 176 175 595 596 617 616 
8 155 156 177 176 596 597 618 617 
8 156 157 178 177 597 598 619 618 
8 157 158 179 178 598 599 620 619 
8 158 159 180 179 599 600 621 620 
8 159 160 181 180 600 601 622 621 
8 160 161 182 181 601 602 623 622 
8 161 162 183 182 602 603 624 623 
8 162 163 184 183 603 604 625 624 
8 163 164 185 184 604 605 626 625 
8 164 165 186 185 605 606 627 626 
8 165 166 187 186 606 607 628 627 
8 166 167 188 187 607 608 629 628 
8 168 169 190 189 609 610 631 630 
8 169 170 191 190 610 611 632 631 
8 170 171 192 191 611 612 633 632 
8 171 172 193 192 612 613 634 633 
8 172 173 194 193 613 614 635 634 
8 173 174 195 194 614 615 636 635 
8 174 175 196 195 615 616 637 636 
8 175 176 197 196 616 617 638 637 
8 176 177 198 197 617 618 639 638 
8 177 178 199 198 618 619 640 639 
8 178 179 200 199 619 620 641 640 
8 179 180 201 200 620 621 642 641 
8 180 181 202 201 621 622 643 642 
8 181 182 203 202 622 623 644 643 
8 182 183 204 203 623 624 645 644 
8 183 184 205 204 624 625 646 645 
8 184 185 206 205 625 626 647 646 
8 185 186 207 206 626 627 648 647 
8 186 187 208 207 627 628 649 648 
8 187 188 209 208 628 629 650 649 
8 189 190 211 210 630 631 652 651 
8 190 191 212 211 631 632 653 652 
8 191 192 213 212 632 633 654 653 
8 192 193 214 213 633 634 655 654 
8 193 194 215 214 634 635 656 655 
8 194 195 216 215 635 636 657 656 
8 195 196 217 216 636 637 658 657 
8 196 197 218 217 637 638 659 658 
8 197 198 219 218 638 639 660 659 
8 198 199 220 219 639 640 661 660 
8 199 200 221 220 640 641 662 661 
8 200 201 222 221 641 642 663 662 
8 201 202 223 222 642 643 664 663 
8 202 203 224 223 643 644 665 664 
8 203 204 225 224 644 645 666 665 
8 204 205 226 225 645 646 667 666 
8 205 206 227 226 646 647 668 667 
8 206 207 228 227 647 648 669 668 
8 207 208 229 228 648 649 670 669 
8 208 209 230 229 649 650 671 670 
8 210 211 232 231 651 652 673 672 
8 211 212 233 232 652 653 674 673 
8 212 213 234 233 653 654 675 674 
8 213 214 235 234 654 655 676 675 
8 214 215 236 235 655 656 677 676 
8 215 216 237 236 656 657 678 677 
8 216 217 238 237 657 658 679 678 
8 217 218 239 238 658 659 680 679 
8 218 219 240 239 659 660 681 680 
8 219 220 241 240 660 661 682 681 
8 220 221 242 241 661 662 683 682 
8 221 222 243 242 662 663 684 683 
8 222 223 244 243 663 664 685 684 
8 223 224 245 244 664 665 686 685 
8 224 225 246 245 665 666 687 686 
8 225 226 247 246 666 667 688 687 
8 226 227 248 247 667 668 689 688 
8 227 228 249 248 668 669 690 689 
8 228 229 250 249 669 670 691 690 
8 229 230 251 250 670 671 692 691 
8 231 232 253 252 672 673 694 693 
8 232 233 254 253 673 674 695 694 
8 233 234 255 254 674 675 696 695 
8 234 235 256 255 675 676 697 696 
8 235 236 257 256 676 677 698 697 
8 236 237 258 257 677 678 699 698 
8 237 238 259 258 678 679 700 699 
8 238 239 260 259 679 680 701 700 
8 239 240 261 260 680 681 702 701 
8 240 241 262 261 681 682 703 702 
8 241 242 263 262 682 683 704 703 
8 242 243 264 263 683 684 705 704 
8 243 244 265 264 684 685 706 705 
8 244 245 266 265 685 686 707 706 
8 245 246 267 266 686 687 708 707 
8 246 247 268 267 687 688 709 708 
8 247 248 269 268 688 689 710 709 
8 248 249 270 269 689 690 711 710 
8 249 250 271 270 690 691 712 711 
8 250 251 272 271 691 692 713 712 
8 252 253 274 273 693 694 715 714 
8 253 254 275 274 694 695 716 715 
8 254 255 276 275 695 696 717 716 
8 255 256 277 276 696 697 718 717 
8 256 257 278 277 697 698 719 718 
8 257 258 279 278 698 699 720 719 
8 258 259 280 279 699 700 721 720 
8 259 260 281 280 700 701 722 721 
8 260 261 282 281 701 702 723 722 
8 261 262 283 282 702 703 724 723 
8 262 263 284 283 703 704 725 724 
8 263 264 285 284 704 705 726 725 
8 264 265 286 285 705 706 727 726 
8 265 266 287 286 706 707 728 727 
8 266 267 288 287 707 708 729 728 
8 267 268 289 288 708 709 730 729 
8 268 269 290 289 709 710 731 730 
8 269 270 291 290 710 711 732 731 
8 270 271 292 291 711 712 733 732 
8 271 272 293 292 712 713 734 733 
8 273 274 295 294 714 715 736 735 
8 274 275 296 295 715 716 737 736 
8 275 276 297 296 716 717 738 737 
8 276 277 298 297 717 718 739 738 
8 277 278 299 298 718 719 740 739 
8 278 279 300 299 719 720 741 740 
8 279 280 301 300 720 721 742 741 
8 280 281 302 301 721 722 743 742 
8 281 282 303 302 722 723 744 743 
8 282 283 304 303 723 724 745 744 
8 283 284 305 304 724 725 746 745 
8 284 285 306 305 725 726 747 746 
8 285 286 307 306 726 727 748 747 
8 286 287 308 307 727 728 749 748 
8 287 288 309 308 728 729 750 749 
8 288 289 310 309 729 730 751 750 
8 289 290 311 310 730 731 752 751 
8 290 291 312 311 731 732 753 752 
8 291 292 313 312 732 733 754 753 
8 292 293 314 313 733 734 755 754 
8 294 295 316 315 735 736 757 756 
8 295 296 317 316 736 737 758 757 
8 296 297 318 317 737 738 759 758 
8 297 298 319 318 738 739 760 759 
8 298 299 320 319 739 740 761 760 
8 299 300 321 320 740 741 762 761 
8 300 301 322 321 741 742 763 762 
8 301 302 323 322 742 743 764 763 
8 302 303 324 323 743 744 765 764 
8 303 304 325 324 744 745 766 765 
8 304 305 326 325 745 746 767 766 
8 305 306 327 326 746 747 768 767 
8 306 307 328 327 747 748 769 768 
8 307 308 329 328 748 749 770 769 
8 308 309 330 329 749 750 771 770 
8 309 310 331 330 750 751 772 771 
8 310 311 332 331 751 752 773 772 
8 311 312 333 332 752 753 774 773 
8 312 313 334 333 753 754 775 774 
8 313 314 335 334 754 755 776 775 
8 315 316 337 336 756 757 778 777 
8 316 317 338 337 757 758 779 778 
8 317 318 339 338 758 759 780 779 
8 318 319 340 339 759 760 781 780 
8 319 320 341 340 760 761 782 781 
8 320 321 342 341 761 762 783 782 
8 321 322 343 342 762 763 784 783 
8 322 323 344 343 763 764 785 784 
8 323 324 345 344 764 765 786 785 
8 324 325 346 345 765 766 787 786 
8 325 326 347 346 766 767 788 787 
8 326 327 348 347 767 768 789 788 
8 327 328 349 348 768 769 790 789 
8 328 329 350 349 769 770 791 790 
8 329 330 351 350 770 771 792 791 
8 330 331 352 351 771 772 793 792 
8 331 332 353 352 772 773 794 793 
8 332 333 354 353 773 774 795 794 
8 333 334 355 354 774 775 796 795 
8 334 335 356 355 775 776 797 796 
8 336 337 358 357 777 778 799 798 
8 337 338 359 358 778 779 800 799 
8 338 339 360 359 779 780 801 800 
8 339 340 361 360 780 781 802 801 
8 340 341 362 361 781 782 803 802 
8 341 342 363 362 782 783 804 803 
8 342 343 364 363 783 784 805 804 
8 343 344 365 364 784 785 806 805 
8 344 345 366 365 785 786 807 806 
8 345 346 367 366 786 787 808 807 
8 346 347 368 367 787 788 809 808 
8 347 348 369 368 788 789 810 809 
8 348 349 370 369 789 790 811 810 
8 349 350 371 370 790 791 812 811 
8 350 351 372 371 791 792 813 812 
8 351 352 373 372 792 793 814 813 
8 352 353 374 373 793 794 815 814 
8 353 354 375 374 794 795 816 815 
8 354 355 376 375 795 796 817 816 
8 355 356 377 376 796 797 818 817 
8 357 358 379 378 798 799 820 819 
8 358 359 380 379 799 800 821 820 
8 359 360 381 380 800 801 822 821 
8 360 361 382 381 801 802 823 822 
8 361 362 383 382 802 803 824 823 
8 362 363 384 383 803 804 825 824 
8 363 364 385 384 804 805 826 825 
8 364 365 386 385 805 806 827 826 
8 365 366 387 386 806 807 828 827 
8 366 367 388 387 807 808 829 828 
8 367 368 389 388 808 809 830 829 
8 368 369 390 389 809 810 831 830 
8 369 370 391 390 810 811 832 831 
8 370 371 392 391 811 812 833 832 
8 371 372 393 392 812 813 834 833 
8 372 373 394 393 813 814 835 834 
8 373 374 395 394 814 815 836 835 
8 374 375 396 395 815 816 837 836 
8 375 376 397 396 816 817 838 837 
8 376 377 398 397 817 818 839 838 
8 378 379 400 399 819 820 841 840 
8 379 380 401 400 820 821 842 841 
8 380 381 402 401 821 822 843 842 
8 381 382 403 402 822 823 844 843 
8 382 383 404 403 823 824 845 844 
8 383 384 405 404 824 825 846 845 
8 384 385 406 405 825 826 847 846 
8 385 386 407 406 826 827 848 847 
8 386 387 408 407 827 828 849 848 
8 387 388 409 408 828 829 850 849 
8 388 389 410 409 829 830 851 850 
8 389 390 411 410 830 831 852 851 
8 390 391 412 411 831 832 853 852 
8 391 392 413 412 832 833 854 853 
8 392 393 414 413 833 834 855 854 
8 393 394 415 414 834 835 856 855 
8 394 395 416 415 835 836 857 856 
8 395 396 417 416 836 837 858 857 
8 396 397 418 417 837 838 859 858 
8 397 398 419 418 838 839 860 859 
8 399 400 421 420 840 841 862 861 
8 400 401 422 421 841 842 863 862 
8 401 402 423 422 842 843 864 863 
8 402 403 424 423 843 844 865 864 
8 403 404 425 424 844 845 866 865 
8 404 405 426 425 845 846 867 866 
8 405 406 427 426 846 847 868 867 
8 406 407 428 427 847 848 869 868 
8 407 408 429 428 848 849 870 869 
8 408 409 430 429 849 850 871 870 
8 409 410 431 430 850 851 872 871 
8 410 411 432 431 851 852 873 872 
8 411 412 433 432 852 853 874 873 
8 412 413 434 433 853 854 875 874 
8 413 414 435 434 854 855 876 875 
8 414 415 436 435 855 856 877 876 
8 415 416 437 436 856 857 878 877 
8 416 417 438 437 857 858 879 878 
8 417 418 439 438 858 859 880 879 
8 418 419 440 439 859 860 881 880 
8 441 442 463 462 882 883 904 903 
8 442 443 464 463 883 884 905 904 
8 443 444 465 464 884 885 906 905 
8 444 445 466 465 885 886 907 906 
8 445 446 467 466 886 887 908 907 
8 446 447 468 467 887 888 909 908 
8 447 448 469 468 888 889 910 909 
8 448 449 470 469 889 890 911 910 
8 449 450 471 470 890 891 912 911 
8 450 451 472 471 891 892 913 912 
8 451 452 473 472 892 893 914 913 
8 452 453 474 473 893 894 915 914 
8 453 454 475 474 894 895 916 915 
8 454 455 476 475 895 896 917 916 
8 455 456 477 476 896 897 918 917 
8 456 457 478 477 897 898 919 918 
8 457 458 479 478 898 899 920 919 
8 458 459 480 479 899 900 921 920 
8 459 460 481 480 900 901 922 921 
8 460 461 482 481 901 902 923 922 
8 462 463 484 483 903 904 925 924 
8 463 464 485 484 904 905 926 925 
8 464 465 486 485 905 906 927 926 
8 465 466 487 486 906 907 928 927 
8 466 467 488 487 907 908 929 928 
8 467 468 489 488 908 909 930 929 
8 468 469 490 489 909 910 931 930 
8 469 470 491 490 910 911 932 931 
8 470 471 492 491 911 912 933 932 
8 471 472 493 492 912 913 934 933 
8 472 473 494 493 913 914 935 934 
8 473 474 495 494 914 915 936 935 
8 474 475 496 495 915 916 937 936 
8 475 476 497 496 916 917 938 937 
8 476 477 498 497 917 918 939 938 
8 477 478 499 498 918 919 940 939 
8 478 479 500 499 919 920 941 940 
8 479 480 501 500 920 921 942 941 
8 480 481 502 501 921 922 943 942 
8 481 482 503 502 922 923 944 943 
8 483 484 505 504 924 925 946 945 
8 484 485 506 505 925 926 947 946 
8 485 486 507 506 926 927 948 947 
8 486 487 508 507 927 928 949 948 
8 487 488 509 508 928 929 950 949 
8 488 489 510 509 929 930 951 950 
8 489 490 511 510 930 931 952 951 
8 490 491 512 511 931 932 953 952 
8 491 492 513 512 932 933 954 953 
8 492 493 514 513 933 934 955 954 
8 493 494 515 514 934 935 956 955 
8 494 495 516 515 935 936 957 956 
8 495 496 517 516 936 937 958 957 
8 496 497 518 517 937 938 959 958 
8 497 498 519 518 938 939 960 959 
8 498 499 520 519 939 940 961 960 
8 499 500 521 520 940 941 962 961 
8 500 501 522 521 941 942 963 962 
8 501 502 523 522 942 943 964 963 
8 502 503 524 523 943 944 965 964 
8 504 505 526 525 945 946 967 966 
8 505 506 527 526 946 947 968 967 
8 506 507 528 527 947 948 969 968 
8 507 508 529 528 948 949 970 969 
8 508 509 530 529 949 950 971 970 
8 509 510 531 530 950 951 972 971 
8 510 511 532 531 951 952 973 972 
8 511 512 533 532 952 953 974 973 
8 512 513 534 533 953 954 975 974 
8 513 514 535 534 954 955 976 975 
8 514 515 536 535 955 956 977 976 
8 515 516 537 536 956 957 978 977 
8 516 517 538 537 957 958 979 978 
8 517 518 539 538 958 959 980 979 
8 518 519 540 539 959 960 981 980 
8 519 520 541 540 960 961 982 981 
8 520 521 542 541 961 962 983 982 
8 521 522 543 542 962 963 984 983 
8 522 523 544 543 963 964 985 984 
8 523 524 545 544 964 965 986 985 
8 525 526 547 546 966 967 988 987 
8 526 527 548 547 967 968 989 988 
8 527 528 549 548 968 969 990 989 
8 528 529 550 549 969 970 991 990 
8 529 530 551 550 970 971 992 991 
8 530 531 552 551 971 972 993 992 
8 531 532 553 552 972 973 994 993 
8 532 533 554 553 973 974 995 994 
8 533 534 555 554 974 975 996 995 
8 534 535 556 555 975 976 997 996 
8 535 536 557 556 976 977 998 997 
8 536 537 558 557 977 978 999 998 
8 537 538 559 558 978 979 1000 999 
8 538 539 560 559 979 980 1001 1000 
8 539 540 561 560 980 981 1002 1001 
8 540 541 562 561 981 982 1003 1002 
8 541 542 563 562 982 983 1004 1003 
8 542 543 564 563 983 984 1005 1004 
8 543 544 565 564 984 985 1006 1005 
8 544 545 566 565 985 986 1007 1006 
8 546 547 568 567 987 988 1009 1008 
8 547 548 569 568 988 989 1010 1009 
8 548 549 570 569 989 990 1011 1010 
8 549 550 571 570 990 991 1012 1011 
8 550 551 572 571 991 992 1013 1012 
8 551 552 573 572 992 993 1014 1013 
8 552 553 574 573 993 994 1015 1014 
8 553 554 575 574 994 995 1016 1015 
8 554 555 576 575 995 996 1017 1016 
8 555 556 577 576 996 997 1018 1017 
8 556 557 578 577 997 998 1019 1018 
8 557 558 579 578 998 999 1020 1019 
8 558 559 580 579 999 1000 1021 1020 
8 559 560 581 580 1000 1001 1022 1021 
8 560 561 582 581 1001 1002 1023 1022 
8 561 562 583 582 1002 1003 1024 1023 
8 562 563 584 583 1003 1004 1025 1024 
8 563 564 585 584 1004 1005 1026 1025 
8 564 565 586 585 1005 1006 1027 1026 
8 565 566 587 586 1006 1007 1028 1027 
8 567 568 589 588 1008 1009 1030 1029 
8 568 569 590 589 1009 1010 1031 1030 
8 569 570 591 590 1010 1011 1032 1031 
8 570 571 592 591 1011 1012 1033 1032 
8 571 572 593 592 1012 1013 1034 1033 
8 572 573 594 593 1013 1014 1035 1034 
8 573 574 595 594 1014 1015 1036 1035 
8 574 575 596 595 1015 1016 1037 1036 
8 575 576 597 596 1016 1017 1038 1037 
8 576 577 598 597 1017 1018 1039 1038 
8 577 578 599 598 1018 1019 1040 1039 
8 578 579 600 599 1019 1020 1041 1040 
8 579 580 601 600 1020 1021 1042 1041 
8 580 581 602 601 1021 1022 1043 1042 
8 581 582 603 602 1022 1023 1044 1043 
8 582 583 604 603 1023 1024 1045 1044 
8 583 584 605 604 1024 1025 1046 1045 
8 584 585 606 605 1025 1026 1047 1046 
8 585 586 607 606 1026 1027 1048 1047 
8 586 587 608 607 1027 1028 1049 1048 
8 588 589 610 609 1029 1030 1051 1050 
8 589 590 611 610 1030 1031 1052 1051 
8 590 591 612 611 1031 1032 1053 1052 
8 591 592 613 612 1032 1033 1054 1053 
8 592 593 614 613 1033 1034 1055 1054 
8 593 594 615 614 1034 1035 1056 1055 
8 594 595 616 615 1035 1036 1057 1056 
8 595 596 617 616 1036 1037 1058 1057 
8 596 597 618 617 1037 1038 1059 1058 
8 597 598 619 618 1038 1039 1060 1059 
8 598 599 620 619 1039 1040 1061 1060 
8 599 600 621 620 1040 1041 1062 1061 
8 600 601 622 621 1041 1042 1063 1062 
8 601 602 623 622 1042 1043 1064 1063 
8 602 603 624 623 1043 1044 1065 1064 
8 603 604 625 624 1044 1045 1066 1065 
8 604 605 626 625 1045 1046 1067 1066 
8 605 606 627 626 1046 1047 1068 1067 
8 606 607 628 627 1047 1048 1069 1068 
8 607 608 629 628 1048 1049 1070 1069 
8 609 610 631 630 1050 1051 1072 1071 
8 610 611 632 631 1051 1052 1073 1072 
8 611 612 633 632 1052 1053 1074 1073 
8 612 613 634 633 1053 1054 1075 1074 
8 613 614 635 634 1054 1055 1076 1075 
8 614 615 636 635 1055 1056 1077 1076 
8 615 616 637 636 1056 1057 1078 1077 
8 616 617 638 637 1057 1058 1079 1078 
8 617 618 639 638 1058 1059 1080 1079 
8 618 619 640 639 1059 1060 1081 1080 
8 619 620 641 640 1060 1061 1082 1081 
8 620 621 642 641 1061 1062 1083 1082 
8 621 622 643 642 1062 1063 1084 1083 
8 622 623 644 643 1063 1064 1085 1084 
8 623 624 645 644 1064 1065 1086 1085 
8 624 625 646 645 1065 1066 1087 1086 
8 625 626 647 646 1066 1067 1088 1087 
8 626 627 648 647 1067 1068 1089 1088 
8 627 628 649 648 1068 1069 1090 1089 
8 628 629 650 649 1069 1070 1091 1090 
8 630 631 652 651 1071 1072 1093 1092 
8 631 632 653 652 1072 1073 1094 1093 
8 632 633 654 653 1073 1074 1095 1094 
8 633 634 655 654 1074 1075 1096 1095 
8 634 635 656 655 1075 1076 1097 1096 
8 635 636 657 656 1076 1077 1098 1097 
8 636 637 658 657 1077 1078 1099 1098 
8 637 638 659 658 1078 1079 1100 1099 
8 638 639 660 659 1079 1080 1101 1100 
8 639 640 661 660 1080 1081 1102 1101 
8 640 641 662 661 1081 1082 1103 1102 
8 641 642 663 662 1082 1083 1104 1103 
8 642 643 664 663 1083 1084 1105 1104 
8 643 644 665 664 1084 1085 1106 1105 
8 644 645 666 665 1085 1086 1107 1106 
8 645 646 667 666 1086 1087 1108 1107 
8 646 647 668 667 1087 1088 1109 1108 
8 647 648 669 668 1088 1089 1110 1109 
8 648 649 670 669 1089 1090 1111 1110 
8 649 650 671 670 1090 1091 1112 1111 
8 651 652 673 672 1092 1093 1114 1113 
8 652 653 674 673 1093 1094 1115 1114 
8 653 654 675 674 1094 1095 1116 1115 
8 654 655 676 675 1095 1096 1117 1116 
8 655 656 677 676 1096 1097 1118 1117 
8 656 657 678 677 1097 1098 1119 1118 
8 657 658 679 678 1098 1099 1120 1119 
8 658 659 680 679 1099 1100 1121 1120 
8 659 660 681 680 1100 1101 1122 1121 
8 660 661 682 681 1101 1102 1123 1122 
8 661 662 683 682 1102 1103 1124 1123 
8 662 663 684 683 1103 1104 1125 1124 
8 663 664 685 684 1104 1105 1126 1125 
8 664 665 686 685 1105 1106 1127 1126 
8 665 666 687 686 1106 1107 1128 1127 
8 666 667 688 687 1107 1108 1129 1128 
8 667 668 689 688 1108 1109 1130 1129 
8 668 669 690 689 1109 1110 1131 1130 
8 669 670 691 690 1110 1111 1132 1131 
8 670 671 692 691 1111 1112 1133 1132 
8 672 673 694 693 1113 1114 1135 1134 
8 673 674 695 694 1114 1115 1136 1135 
8 674 675 696 695 1115 1116 1137 1136 
8 675 676 697 696 1116 1117 1138 1137 
8 676 677 698 697 1117 1118 1139 1138 
8 677 678 699 698 1118 1119 1140 1139 
8 678 679 700 699 1119 1120 1141 1140 
8 679 680 701 700 1120 1121 1142 1141 
8 680 681 702 701 1121 1122 1143 1142 
8 681 682 703 702 1122 1123 1144 1143 
8 682 683 704 703 1123 1124 1145 1144 
8 683 684 705 704 1124 1125 1146 1145 
8 684 685 706 705 1125 1126 1147 1146 
8 685 686 707 706 1126 1127 1148 1147 
8 686 687 708 707 1127 1128 1149 1148 
8 687 688 709 708 1128 1129 1150 1149 
8 688 689 710 709 1129 1130 1151 1150 
8 689 690 711 710 1130 1131 1152 1151 
8 690 691 712 711 1131 1132 1153 1152 
8 691 692 713 712 1132 1133 1154 1153 
8 693 694 715 714 1134 1135 1156 1155 
8 694 695 716 715 1135 1136 1157 1156 
8 695 696 717 716 1136 1137 1158 1157 
8 696 697 718 717 1137 1138 1159 1158 
8 697 698 719 718 1138 1139 1160 1159 
8 698 699 720 719 1139 1140 1161 1160 
8 699 700 721 720 1140 1141 1162 1161 
8 700 701 722 721 1141 1142 1163 1162 
8 701 702 723 722 1142 1143 1164 1163 
8 702 703 724 723 1143 1144 1165 1164 
8 703 704 725 724 1144 1145 1166 1165 
8 704 705 726 725 1145 1146 1167 1166 
8 705 706 727 726 1146 1147 1168 1167 
8 706 707 728 727 1147 1148 1169 1168 
8 707 708 729 728 1148 1149 1170 1169 
8 708 709 730 729 1149 1150 1171 1170 
8 709 710 731 730 1150 1151 1172 1171 
8 710 711 732 731 1151 1152 1173 1172 
8 711 712 733 732 1152 1153 1174 1173 
8 712 713 734 733 1153 1154 1175 1174 
8 714 715 736 735 1155 1156 1177 1176 
8 715 716 737 736 1156 1157 1178 1177 
8 716 717 738 737 1157 1158 1179 1178 
8 717 718 739 738 1158 1159 1180 1179 
8 718 719 740 739 1159 1160 1181 1180 
8 719 720 741 740 1160 1161 1182 1181 
8 720 721 742 741 1161 1162 1183 1182 
8 721 722 743 742 1162 1163 1184 1183 
8 722 723 744 743 1163 1164 1185 1184 
8 723 724 745 744 1164 1165 1186 1185 
8 724 725 746 745 1165 1166 1187 1186 
8 725 726 747 746 1166 1167 1188 1187 
8 726 727 748 747 1167 1168 1189 1188 
8 727 728 749 748 1168 1169 1190 1189 
8 728 729 750 749 1169 1170 1191 1190 
8 729 730 751 750 1170 1171 1192 1191 
8 730 731 752 751 1171 1172 1193 1192 
8 731 732 753 752 1172 1173 1194 1193 
8 732 733 754 753 1173 1174 1195 1194 
8 733 734 755 754 1174 1175 1196 1195 
8 735 736 757 756 1176 1177 1198 1197 
8 736 737 758 757 1177 1178 1199 1198 
8 737 738 759 758 1178 1179 1200 1199 
8 738 739 760 759 1179 1180 1201 1200 
8 739 740 761 760 1180 1181 1202 1201 
8 740 741 762 761 1181 1182 1203 1202 
8 741 742 763 762 1182 1183 1204 1203 
8 742 743 764 763 1183 1184 1205 1204 
8 743 744 765 764 1184 1185 1206 1205 
8 744 745 766 765 1185 1186 1207 1206 
8 745 746 767 766 1186 1187 1208 1207 
8 746 747 768 767 1187 1188 1209 1208 
8 747 748 769 768 1188 1189 1210 1209 
8 748 749 770 769 1189 1190 1211 1210 
8 749 750 771 770 1190 1191 1212 1211 
8 750 751 772 771 1191 1192 1213 1212 
8 751 752 773 772 1192 1193 1214 1213 
8 752 753 774 773 1193 1194 1215 1214 
8 753 754 775 774 1194 1195 1216 1215 
8 754 755 776 775 1195 1196 1217 1216 
8 756 757 778 777 1197 1198 1219 1218 
8 757 758 779 778 1198 1199 1220 1219 
8 758 759 780 779 1199 1200 1221 1220 
8 759 760 781 780 1200 1201 1222 1221 
8 760 761 782 781 1201 1202 1223 1222 
8 761 762 783 782 1202 1203 1224 1223 
8 762 763 784 783 1203 1204 1225 1224 
8 763 764 785 784 1204 1205 1226 1225 
8 764 765 786 785 1205 1206 1227 1226 
8 765 766 787 786 1206 1207 1228 1227 
8 766 767 788 787 1207 1208 1229 1228 
8 767 768 789 788 1208 1209 1230 1229 
8 768 769 790 789 1209 1210 1231 1230 
8 769 770 791 790 1210 1211 1232 1231 
8 770 771 792 791 1211 1212 1233 1232 
8 771 772 793 792 1212 1213 1234 1233 
8 772 773 794 793 1213 1214 1235 1234 
8 773 774 795 794 1214 1215 1236 1235 
8 774 775 796 795 1215 1216 1237 1236 
8 775 776 797 796 1216 1217 1238 1237 
8 777 778 799 798 1218 1219 1240 1239 
8 778 779 800 799 1219 1220 1241 1240 
8 779 780 801 800 1220 1221 1242 1241 
8 780 781 802 801 1221 1222 1243 1242 
8 781 782 803 802 1222 1223 1244 1243 
8 782 783 804 803 1223 1224 1245 1244 
8 783 784 805 804 1224 1225 1246 1245 
8 784 785 806 805 1225 1226 1247 1246 
8 785 786 807 806 1226 1227 1248 1247 
8 786 787 808 807 1227 1228 1249 1248 
8 787 788 809 808 1228 1229 1250 1249 
8 788 789 810 809 1229 1230 1251 1250 
8 789 790 811 810 1230 1231 1252 1251 
8 790 791 812 811 1231 1232 1253 1252 
8 791 792 813 812 1232 1233 1254 1253 
8 792 793 814 813 1233 1234 1255 1254 
8 793 794 815 814 1234 1235 1256 1255 
8 794 795 816 815 1235 1236 1257 1256 
8 795 796 817 816 1236 1237 1258 1257 
8 796 797 818 817 1237 1238 1259 1258 
8 798 799 820 819 1239 1240 1261 1260 
8 799 800 821 820 1240 1241 1262 1261 
8 800 801 822 821 1241 1242 1263 1262 
8 801 802 823 822 1242 1243 1264 1263 
8 802 803 824 823 1243 1244 1265 1264 
8 803 804 825 824 1244 1245 1266 1265 
8 804 805 826 825 1245 1246 1267 1266 
8 805 806 827 826 1246 1247 1268 1267 
8 806 807 828 827 1247 1248 1269 1268 
8 807 808 829 828 1248 1249 1270 1269 
8 808 809 830 829 1249 1250 1271 1270 
8 809 810 831 830 1250 1251 1272 1271 
8 810 811 832 831 1251 1252 1273 1272 
8 811 812 833 832 1252 1253 1274 1273 
8 812 813 834 833 1253 1254 1275 1274 
8 813 814 835 834 1254 1255 1276 1275 
8 814 815 836 835 1255 1256 1277 1276 
8 815 816 837 836 1256 1257 1278 1277 
8 816 817 838 837 1257 1258 1279 1278 
8 817 818 839 838 1258 1259 1280 1279 
8 819 820 841 840 1260 1261 1282 1281 
8 820 821 842 841 1261 1262 1283 1282 
8 821 822 843 842 1262 1263 1284 1283 
8 822 823 844 843 1263 1264 1285 1284 
8 823 824 845 844 1264 1265 1286 1285 
8 824 825 846 845 1265 1266 1287 1286 
8 825 826 847 846 1266 1267 1288 1287 
8 826 827 848 847 1267 1268 1289 1288 
8 827 828 849 848 1268 1269 1290 1289 
8 828 829 850 849 1269 1270 1291 1290 
8 829 830 851 850 1270 1271 1292 1291 
8 830 831 852 851 1271 1272 1293 1292 
8 831 832 853 852 1272 1273 1294 1293 
8 832 833 854 853 1273 1274 1295 1294 
8 833 834 855 854 1274 1275 1296 1295 
8 834 835 856 855 1275 1276 1297 1296 
8 835 836 857 856 1276 1277 1298 1297 
8 836 837 858 857 1277 1278 1299 1298 
8 837 838 859 858 1278 1279 1300 1299 
8 838 839 860 859 1279 1280 1301 1300 
8 840 841 862 861 1281 1282 1303 1302 
8 841 842 863 862 1282 1283 1304 1303 
8 842 843 864 863 1283 1284 1305 1304 
8 843 844 865 864 1284 1285 1306 1305 
8 844 845 866 865 1285 1286 1307 1306 
8 845 846 867 866 1286 1287 1308 1307 
8 846 847 868 867 1287 1288 1309 1308 
8 847 848 869 868 1288 1289 1310 1309 
8 848 849 870 869 1289 1290 1311 1310 
8 849 850 871 870 1290 1291 1312 1311 
8 850 851 872 871 1291 1292 1313 1312 
8 851 852 873 872 1292 1293 1314 1313 
8 852 853 874 873 1293 1294 1315 1314 
8 853 854 875 874 1294 1295 1316 1315 
8 854 855 876 875 1295 1296 1317 1316 
8 855 856 877 876 1296 1297 1318 1317 
8 856 857 878 877 1297 1298 1319 1318 
8 857 858 879 878 1298 1299 1320 1319 
8 858 859 880 879 1299 1300 1321 1320 
8 859 860 881 880 1300 1301 1322 1321 
8 882 883 904 903 1323 1324 1345 1344 
8 883 884 905 904 1324 1325 1346 1345 
8 884 885 906 905 1325 1326 1347 1346 
8 885 886 907 906 1326 1327 1348 1347 
8 886 887 908 907 1327 1328 1349 1348 
8 887 888 909 908 1328 1329 1350 1349 
8 888 889 910 909 1329 1330 1351 1350 
8 889 890 911 910 1330 1331 1352 1351 
8 890 891 912 911 1331 1332 1353 1352 
8 891 892 913 912 1332 1333 1354 1353 
8 892 893 914 913 1333 1334 1355 1354 
8 893 894 915 914 1334 1335 1356 1355 
8 894 895 916 915 1335 1336 1357 1356 
8 895 896 917 916 1336 1337 1358 1357 
8 896 897 918 917 1337 1338 1359 1358 
8 897 898 919 918 1338 1339 1360 1359 
8 898 899 920 919 1339 1340 1361 1360 
8 899 900 921 920 1340 1341 1362 1361 
8 900 901 922 921 1341 1342 1363 1362 
8 901 902 923 922 1342 1343 1364 1363 
8 903 904 925 924 1344 1345 1366 1365 
8 904 905 926 925 1345 1346 1367 1366 
8 905 906 927 926 1346 1347 1368 1367 
8 906 907 928 927 1347 1348 1369 1368 
8 907 908 929 928 1348 1349 1370 1369 
8 908 909 930 929 1349 1350 1371 1370 
8 909 910 931 930 1350 1351 1372 1371 
8 910 911 932 931 1351 1352 1373 1372 
8 911 912 933 932 1352 1353 1374 1373 
8 912 913 934 933 1353 1354 1375 1374 
8 913 914 935 934 1354 1355 1376 1375 
8 914 915 936 935 1355 1356 1377 1376 
8 915 916 937 936 1356 1357 1378 1377 
8 916 917 938 937 1357 1358 1379 1378 
8 917 918 939 938 1358 1359 1380 1379 
8 918 919 940 939 1359 1360 1381 1380 
8 919 920 941 940 1360 1361 1382 1381 
8 920 921 942 941 1361 1362 1383 1382 
8 921 922 943 942 1362 1363 1384 1383 
8 922 923 944 943 1363 1364 1385 1384 
8 924 925 946 945 1365 1366 1387 1386 
8 925 926 947 946 1366 1367 1388 1387 
8 926 927 948 947 1367 1368 1389 1388 
8 927 928 949 948 1368 1369 1390 1389 
8 928 929 950 949 1369 1370 1391 1390 
8 929 930 951 950 1370 1371 1392 1391 
8 930 931 952 951 1371 1372 1393 1392 
8 931 932 953 952 1372 1373 1394 1393 
8 932 933 954 953 1373 1374 1395 1394 
8 933 934 955 954 1374 1375 1396 1395 
8 934 935 956 955 1375 1376 1397 1396 
8 935 936 957 956 1376 1377 1398 1397 
8 936 937 958 957 1377 1378 1399 1398 
8 937 938 959 958 1378 1379 1400 1399 
8 938 939 960 959 1379 1380 1401 1400 
8 939 940 961 960 1380 1381 1402 1401 
8 940 941 962 961 1381 1382 1403 1402 
8 941 942 963 962 1382 1383 1404 1403 
8 942 943 964 963 1383 1384 1405 1404 
8 943 944 965 964 1384 1385 1406 1405 
8 945 946 967 966 1386 1387 1408 1407 
8 946 947 968 967 1387 1388 1409 1408 
8 947 948 969 968 1388 1389 1410 1409 
8 948 949 970 969 1389 1390 1411 1410 
8 949 950 971 970 1390 1391 1412 1411 
8 950 951 972 971 1391 1392 1413 1412 
8 951 952 973 972 1392 1393 1414 1413 
8 952 953 974 973 1393 1394 1415 1414 
8 953 954 975 974 1394 1395 1416 1415 
8 954 955 976 975 1395 1396 1417 1416 
8 955 956 977 976 1396 1397 1418 1417 
8 956 957 978 977 1397 1398 1419 1418 
8 957 958 979 978 1398 1399 1420 1419 
8 958 959 980 979 1399 1400 1421 1420 
8 959 960 981 980 1400 1401 1422 1421 
8 960 961 982 981 1401 1402 1423 1422 
8 961 962 983 982 1402 1403 1424 1423 
8 962 963 984 983 1403 1404 1425 1424 
8 963 964 985 984 1404 1405 1426 1425 
8 964 965 986 985 1405 1406 1427 1426 
8 966 967 988 987 1407 1408 1429 1428 
8 967 968 989 988 1408 1409 1430 1429 
8 968 969 990 989 1409 1410 1431 1430 
8 969 970 991 990 1410 1411 1432 1431 
8 970 971 992 991 1411 1412 1433 1432 
8 971 972 993 992 1412 1413 1434 1433 
8 972 973 994 993 1413 1414 1435 1434 
8 973 974 995 994 1414 1415 1436 1435 
8 974 975 996 995 1415 1416 1437 1436 
8 975 976 997 996 1416 1417 1438 1437 
8 976 977 998 997 1417 1418 1439 1438 
8 977 978 999 998 1418 1419 1440 1439 
8 978 979 1000 999 1419 1420 1441 1440 
8 979 980 1001 1000 1420 1421 1442 1441 
8 980 981 1002 1001 1421 1422 1443 1442 
8 981 982 1003 1002 1422 1423 1444 1443 
8 982 983 1004 1003 1423 1424 1445 1444 
8 983 984 1005 1004 1424 1425 1446 1445 
8 984 985 1006 1005 1425 1426 1447 1446 
8 985 986 1007 1006 1426 1427 1448 1447 
8 987 988 1009 1008 1428 1429 1450 1449 
8 988 989 1010 1009 1429 1430 1451 1450 
8 989 990 1011 1010 1430 1431 1452 1451 
8 990 991 1012 1011 1431 1432 1453 1452 
8 991 992 1013 1012 1432 1433 1454 1453 
8 992 993 1014 1013 1433 1434 1455 1454 
8 993 994 1015 1014 1434 1435 1456 1455 
8 994 995 1016 1015 1435 1436 1457 1456 
8 995 996 1017 1016 1436 1437 1458 1457 
8 996 997 1018 1017 1437 1438 1459 1458 
8 997 998 1019 1018 1438 1439 1460 1459 
8 998 999 1020 1019 1439 1440 1461 1460 
8 999 1000 1021 1020 1440 1441 1462 1461 
8 1000 1001 1022 1021 1441 1442 1463 1462 
8 1001 1002 1023 1022 1442 1443 1464 1463 
8 1002 1003 1024 1023 1443 1444 1465 1464 
8 1003 1004 1025 1024 1444 1445 1466 1465 
8 1004 1005 1026 1025 1445 1446 1467 1466 
8 1005 1006 1027 1026 1446 1447 1468 1467 
8 1006 1007 1028 1027 1447 1448 1469 1468 
8 1008 1009 1030 1029 1449 1450 1471 1470 
8 1009 1010 1031 1030 1450 1451 1472 1471 
8 1010 1011 1032 1031 1451 1452 1473 1472 
8 1011 1012 1033 1032 1452 1453 1474 1473 
8 1012 1013 1034 1033 1453 1454 1475 1474 
8 1013 1014 1035 1034 1454 1455 1476 1475 
8 1014 1015 1036 1035 1455 1456 1477 1476 
8 1015 1016 1037 1036 1456 1457 1478 1477 
8 1016 1017 1038 1037 1457 1458 1479 1478 
8 1017 1018 1039 1038 1458 1459 1480 1479 
8 1018 1019 1040 1039 1459 1460 1481 1480 
8 1019 1020 1041 1040 1460 1461 1482 1481 
8 1020 1021 1042 1041 1461 1462 1483 1482 
8 1021 1022 1043 1042 1462 1463 1484 1483 
8 1022 1023 1044 1043 1463 1464 1485 1484 
8 1023 1024 1045 1044 1464 1465 1486 1485 
8 1024 1025 1046 1045 1465 1466 1487 1486 
8 1025 1026 1047 1046 1466 1467 1488 1487 
8 1026 1027 1048 1047 1467 1468 1489 1488 
8 1027 1028 1049 1048 1468 1469 1490 1489 
8 1029 1030 1051 1050 1470 1471 1492 1491 
8 1030 1031 1052 1051 1471 1472 1493 1492 
8 1031 1032 1053 1052 1472 1473 1494 1493 
8 1032 1033 1054 1053 1473 1474 1495 1494 
8 1033 1034 1055 1054 1474 1475 1496 1495 
8 1034 1035 1056 1055 1475 1476 1497 1496 
8 1035 1036 1057 1056 1476 1477 1498 1497 
8 1036 1037 1058 1057 1477 1478 1499 1498 
8 1037 1038 1059 1058 1478 1479 1500 1499 
8 1038 1039 1060 1059 1479 1480 1501 1500 
8 1039 1040 1061 1060 1480 1481 1502 1501 
8 1040 1041 1062 1061 1481 1482 1503 1502 
8 1041 1042 1063 1062 1482 1483 1504 1503 
8 1042 1043 1064 1063 1483 1484 1505 1504 
8 1043 1044 1065 1064 1484 1485 1506 1505 
8 1044 1045 1066 1065 1485 1486 1507 1506 
8 1045 1046 1067 1066 1486 1487 1508 1507 
8 1046 1047 1068 1067 1487 1488 1509 1508 
8 1047 1048 1069 1068 1488 1489 1510 1509 
8 1048 1049 1070 1069 1489 1490 1511 1510 
8 1050 1051 1072 1071 1491 1492 1513 1512 
8 1051 1052 1073 1072 1492 1493 1514 1513 
8 1052 1053 1074 1073 1493 1494 1515 1514 
8 1053 1054 1075 1074 1494 1495 1516 1515 
8 1054 1055 1076 1075 1495 1496 1517 1516 
8 1055 1056 1077 1076 1496 1497 1518 1517 
8 1056 1057 1078 1077 1497 1498 1519 1518 
8 1057 1058 1079 1078 1498 1499 1520 1519 
8 1058 1059 1080 1079 1499 1500 1521 1520 
8 1059 1060 1081 1080 1500 1501 1522 1521 
8 1060 1061 1082 1081 1501 1502 1523 1522 
8 1061 1062 1083 1082 1502 1503 1524 1523 
8 1062 1063 1084 1083 1503 1504 1525 1524 
8 1063 1064 1085 1084 1504 1505 1526 1525 
8 1064 1065 1086 1085 1505 1506 1527 1526 
8 1065 1066 1087 1086 1506 1507 1528 1527 
8 1066 1067 1088 1087 1507 1508 1529 1528 
8 1067 1068 1089 1088 1508 1509 1530 1529 
8 1068 1069 1090 1089 1509 1510 1531 1530 
8 1069 1070 1091 1090 1510 1511 1532 1531 
8 1071 1072 1093 1092 1512 1513 1534 1533 
8 1072 1073 1094 1093 1513 1514 1535 1534 
8 1073 1074 1095 1094 1514 1515 1536 1535 
8 1074 1075 1096 1095 1515 1516 1537 1536 
8 1075 1076 1097 1096 1516 1517 1538 1537 
8 1076 1077 1098 1097 1517 1518 1539 1538 
8 1077 1078 1099 1098 1518 1519 1540 1539 
8 1078 1079 1100 1099 1519 1520 1541 1540 
8 1079 1080 1101 1100 1520 1521 1542 1541 
8 1080 1081 1102 1101 1521 1522 1543 1542 
8 1081 1082 1103 1102 1522 1523 1544 1543 
8 1082 1083 1104 1103 1523 1524 1545 1544 
8 1083 1084 1105 1104 1524 1525 1546 1545 
8 1084 1085 1106 1105 1525 1526 1547 1546 
8 1085 1086 1107 1106 1526 1527 1548 1547 
8 1086 1087 1108 1107 1527 1528 1549 1548 
8 1087 1088 1109 1108 1528 1529 1550 1549 
8 1088 1089 1110 1109 1529 1530 1551 1550 
8 1089 1090 1111 1110 1530 1531 1552 1551 
8 1090 1091 1112 1111 1531 1532 1553 1552 
8 1092 1093 1114 1113 1533 1534 1555 1554 
8 1093 1094 1115 1114 1534 1535 1556 1555 
8 1094 1095 1116 1115 1535 1536 1557 1556 
8 1095 1096 1117 1116 1536 1537 1558 1557 
8 1096 1097 1118 1117 1537 1538 1559 1558 
8 1097 1098 1119 1118 1538 1539 1560 1559 
8 1098 1099 1120 1119 1539 1540 1561 1560 
8 1099 1100 1121 1120 1540 1541 1562 1561 
8 1100 1101 1122 1121 1541 1542 1563 1562 
8 1101 1102 1123 1122 1542 1543 1564 1563 
8 1102 1103 1124 1123 1543 1544 1565 1564 
8 1103 1104 1125 1124 1544 1545 1566 1565 
8 1104 1105 1126 1125 1545 1546 1567 1566 
8 1105 1106 1127 1126 1546 1547 1568 1567 
8 1106 1107 1128 1127 1547 1548 1569 1568 
8 1107 1108 1129 1128 1548 1549 1570 1569 
8 1108 1109 1130 1129 1549 1550 1571 1570 
8 1109 1110 1131 1130 1550 1551 1572 1571 
8 1110 1111 1132 1131 1551 1552 1573 1572 
8 1111 1112 1133 1132 1552 1553 1574 1573 
8 1113 1114 1135 1134 1554 1555 1576 1575 
8 1114 1115 1136 1135 1555 1556 1577 1576 
8 1115 1116 1137 1136 1556 1557 1578 1577 
8 1116 1117 1138 1137 1557 1558 1579 1578 
8 1117 1118 1139 1138 1558 1559 1580 1579 
8 1118 1119 1140 1139 1559 1560 1581 1580 
8 1119 1120 1141 1140 1560 1561 1582 1581 
8 1120 1121 1142 1141 1561 1562 1583 1582 
8 1121 1122 1143 1142 1562 1563 1584 1583 
8 1122 1123 1144 1143 1563 1564 1585 1584 
8 1123 1124 1145 1144 1564 1565 1586 1585 
8 1124 1125 1146 1145 1565 1566 1587 1586 
8 1125 1126 1147 1146 1566 1567 1588 1587 
8 1126 1127 1148 1147 1567 1568 1589 1588 
8 1127 1128 1149 1148 1568 1569 1590 1589 
8 1128 1129 1150 1149 1569 1570 1591 1590 
8 1129 1130 1151 1150 1570 1571 1592 1591 
8 1130 1131 1152 1151 1571 1572 1593 1592 
8 1131 1132 1153 1152 1572 1573 1594 1593 
8 1132 1133 1154 1153 1573 1574 1595 1594 
8 1134 1135 1156 1155 1575 1576 1597 1596 
8 1135 1136 1157 1156 1576 1577 1598 1597 
8 1136 1137 1158 1157 1577 1578 1599 1598 
8 1137 1138 1159 1158 1578 1579 1600 1599 
8 1138 1139 1160 1159 1579 1580 1601 1600 
8 1139 1140 1161 1160 1580 1581 1602 1601 
8 1140 1141 1162 1161 1581 1582 1603 1602 
8 1141 1142 1163 1162 1582 1583 1604 1603 
8 1142 1143 1164 1163 1583 1584 1605 1604 
8 1143 1144 1165 1164 1584 1585 1606 1605 
8 1144 1145 1166 1165 1585 1586 1607 1606 
8 1145 1146 1167 1166 1586 1587 1608 1607 
8 1146 1147 1168 1167 1587 1588 1609 1608 
8 1147 1148 1169 1168 1588 1589 1610 1609 
8 1148 1149 1170 1169 1589 1590 1611 1610 
8 1149 1150 1171 1170 1590 1591 1612 1611 
8 1150 1151 1172 1171 1591 1592 1613 1612 
8 1151 1152 1173 1172 1592 1593 1614 1613 
8 1152 1153 1174 1173 1593 1594 1615 1614 
8 1153 1154 1175 1174 1594 1595 1616 1615 
8 1155 1156 1177 1176 1596 1597 1618 1617 
8 1156 1157 1178 1177 1597 1598 1619 1618 
8 1157 1158 1179 1178 1598 1599 1620 1619 
8 1158 1159 1180 1179 1599 1600 1621 1620 
8 1159 1160 1181 1180 1600 1601 1622 1621 
8 1160 1161 1182 1181 1601 1602 1623 1622 
8 1161 1162 1183 1182 1602 1603 1624 1623 
8 1162 1163 1184 1183 1603 1604 1625 1624 
8 1163 1164 1185 1184 1604 1605 1626 1625 
8 1164 1165 1186 1185 1605 1606 1627 1626 
8 1165 1166 1187 1186 1606 1607 1628 1627 
8 1166 1167 1188 1187 1607 1608 1629 1628 
8 1167 1168 1189 1188 1608 1609 1630 1629 
8 1168 1169 1190 1189 1609 1610 1631 1630 
8 1169 1170 1191 1190 1610 1611 1632 1631 
8 1170 1171 1192 1191 1611 1612 1633 1632 
8 1171 1172 1193 1192 1612 1613 1634 1633 
8 1172 1173 1194 1193 1613 1614 1635 1634 
8 1173 1174 1195 1194 1614 1615 1636 1635 
8 1174 1175 1196 1195 1615 1616 1637 1636 
8 1176 1177 1198 1197 1617 1618 1639 1638 
8 1177 1178 1199 1198 1618 1619 1640 1639 
8 1178 1179 1200 1199 1619 1620 1641 1640 
8 1179 1180 1201 1200 1620 1621 1642 1641 
8 1180 1181 1202 1201 1621 1622 1643 1642 
8 1181 1182 1203 1202 1622 1623 1644 1643 
8 1182 1183 1204 1203 1623 1624 1645 1644 
8 1183 1184 1205 1204 1624 1625 1646 1645 
8 1184 1185 1206 1205 1625 1626 1647 1646 
8 1185 1186 1207 1206 1626 1627 1648 1647 
8 1186 1187 1208 1207 1627 1628 1649 1648 
8 1187 1188 1209 1208 1628 1629 1650 1649 
8 1188 1189 1210 1209 1629 1630 1651 1650 
8 1189 1190 1211 1210 1630 1631 1652 1651 
8 1190 1191 1212 1211 1631 1632 1653 1652 
8 1191 1192 1213 1212 1632 1633 1654 1653 
8 1192 1193 1214 1213 1633 1634 1655 1654 
8 1193 1194 1215 1214 1634 1635 1656 1655 
8 1194 1195 1216 1215 1635 1636 1657 1656 
8 1195 1196 1217 1216 1636 1637 1658 1657 
8 1197 1198 1219 1218 1638 1639 1660 1659 
8 1198 1199 1220 1219 1639 1640 1661 1660 
8 1199 1200 1221 1220 1640 1641 1662 1661 
8 1200 1201 1222 1221 1641 1642 1663 1662 
8 1201 1202 1223 1222 1642 1643 1664 1663 
8 1202 1203 1224 1223 1643 1644 1665 1664 
8 1203 1204 1225 1224 1644 1645 1666 1665 
8 1204 1205 1226 1225 1645 1646 1667 1666 
8 1205 1206 1227 1226 1646 1647 1668 1667 
8 1206 1207 1228 1227 1647 1648 1669 1668 
8 1207 1208 1229 1228 1648 1649 1670 1669 
8 1208 1209 1230 1229 1649 1650 1671 1670 
8 1209 1210 1231 1230 1650 1651 1672 1671 
8 1210 1211 1232 1231 1651 1652 1673 1672 
8 1211 1212 1233 1232 1652 1653 1674 1673 
8 1212 1213 1234 1233 1653 1654 1675 1674 
8 1213 1214 1235 1234 1654 1655 1676 1675 
8 1214 1215 1236 1235 1655 1656 1677 1676 
8 1215 1216 1237 1236 1656 1657 1678 1677 
8 1216 1217 1238 1237 1657 1658 1679 1678 
8 1218 1219 1240 1239 1659 1660 1681 1680 
8 1219 1220 1241 1240 1660 1661 1682 1681 
8 1220 1221 1242 1241 1661 1662 1683 1682 
8 1221 1222 1243 1242 1662 1663 1684 1683 
8 1222 1223 1244 1243 1663 1664 1685 1684 
8 1223 1224 1245 1244 1664 1665 1686 1685 
8 1224 1225 1246 1245 1665 1666 1687 1686 
8 1225 1226 1247 1246 1666 1667 1688 1687 
8 1226 1227 1248 1247 1667 1668 1689 1688 
8 1227 1228 1249 1248 1668 1669 1690 1689 
8 1228 1229 1250 1249 1669 1670 1691 1690 
8 1229 1230 1251 1250 1670 1671 1692 1691 
8 1230 1231 1252 1251 1671 1672 1693 1692 
8 1231 1232 1253 1252 1672 1673 1694 1693 
8 1232 1233 1254 1253 1673 1674 1695 1694 
8 1233 1234 1255 1254 1674 1675 1696 1695 
8 1234 1235 1256 1255 1675 1676 1697 1696 
8 1235 1236 1257 1256 1676 1677 1698 1697 
8 1236 1237 1258 1257 1677 1678 1699 1698 
8 1237 1238 1259 1258 1678 1679 1700 1699 
8 1239 1240 1261 1260 1680 1681 1702 1701 
8 1240 1241 1262 1261 1681 1682 1703 1702 
8 1241 1242 1263 1262 1682 1683 1704 1703 
8 1242 1243 1264 1263 1683 1684 1705 1704 
8 1243 1244 1265 1264 1684 1685 1706 1705 
8 1244 1245 1266 1265 1685 1686 1707 1706 
8 1245 1246 1267 1266 1686 1687 1708 1707 
8 1246 1247 1268 1267 1687 1688 1709 1708 
8 1247 1248 1269 1268 1688 1689 1710 1709 
8 1248 1249 1270 1269 1689 1690 1711 1710 
8 1249 1250 1271 1270 1690 1691 1712 1711 
8 1250 1251 1272 1271 1691 1692 1713 1712 
8 1251 1252 1273 1272 1692 1693 1714 1713 
8 1252 1253 1274 1273 1693 1694 1715 1714 
8 1253 1254 1275 1274 1694 1695 1716 1715 
8 1254 1255 1276 1275 1695 1696 1717 1716 
8 1255 1256 1277 1276 1696 1697 1718 1717 
8 1256 1257 1278 1277 1697 1698 1719 1718 
8 1257 1258 1279 1278 1698 1699 1720 1719 
8 1258 1259 1280 1279 1699 1700 1721 1720 
8 1260 1261 1282 1281 1701 1702 1723 1722 
8 1261 1262 1283 1282 1702 1703 1724 1723 
8 1262 1263 1284 1283 1703 1704 1725 1724 
8 1263 1264 1285 1284 1704 1705 1726 1725 
8 1264 1265 1286 1285 1705 1706 1727 1726 
8 1265 1266 1287 1286 1706 1707 1728 1727 
8 1266 1267 1288 1287 1707 1708 1729 1728 
8 1267 1268 1289 1288 1708 1709 1730 1729 
8 1268 1269 1290 1289 1709 1710 1731 1730 
8 1269 1270 1291 1290 1710 1711 1732 1731 
8 1270 1271 1292 1291 1711 1712 1733 1732 
8 1271 1272 1293 1292 1712 1713 1734 1733 
8 1272 1273 1294 1293 1713 1714 1735 1734 
8 1273 1274 1295 1294 1714 1715 1736 1735 
8 1274 1275 1296 1295 1715 1716 1737 1736 
8 1275 1276 1297 1296 1716 1717 1738 1737 
8 1276 1277 1298 1297 1717 1718 1739 1738 
8 1277 1278 1299 1298 1718 1719 1740 1739 
8 1278 1279 1300 1299 1719 1720 1741 1740 
8 1279 1280 1301 1300 1720 1721 1742 1741 
8 1281 1282 1303 1302 1722 1723 1744 1743 
8 1282 1283 1304 1303 1723 1724 1745 1744 
8 1283 1284 1305 1304 1724 1725 1746 1745 
8 1284 1285 1306 1305 1725 1726 1747 1746 
8 1285 1286 1307 1306 1726 1727 1748 1747 
8 1286 1287 1308 1307 1727 1728 1749 1748 
8 1287 1288 1309 1308 1728 1729 1750 1749 
8 1288 1289 1310 1309 1729 1730 1751 1750 
8 1289 1290 1311 1310 1730 1731 1752 1751 
8 1290 1291 1312 1311 1731 1732 1753 1752 
8 1291 1292 1313 1312 1732 1733 1754 1753 
8 1292 1293 1314 1313 1733 1734 1755 1754 
8 1293 1294 1315 1314 1734 1735 1756 1755 
8 1294 1295 1316 1315 1735 1736 1757 1756 
8 1295 1296 1317 1316 1736 1737 1758 1757 
8 1296 1297 1318 1317 1737 1738 1759 1758 
8 1297 1298 1319 1318 1738 1739 1760 1759 
8 1298 1299 1320 1319 1739 1740 1761 1760 
8 1299 1300 1321 1320 1740 1741 1762 1761 
8 1300 1301 1322 1321 1741 1742 1763 1762 
8 1323 1324 1345 1344 1764 1765 1786 1785 
8 1324 1325 1346 1345 1765 1766 1787 1786 
8 1325 1326 1347 1346 1766 1767 1788 1787 
8 1326 1327 1348 1347 1767 1768 1789 1788 
8 1327 1328 1349 1348 1768 1769 1790 1789 
8 1328 1329 1350 1349 1769 1770 1791 1790 
8 1329 1330 1351 1350 1770 1771 1792 1791 
8 1330 1331 1352 1351 1771 1772 1793 1792 
8 1331 1332 1353 1352 1772 1773 1794 1793 
8 1332 1333 1354 1353 1773 1774 1795 1794 
8 1333 1334 1355 1354 1774 1775 1796 1795 
8 1334 1335 1356 1355 1775 1776 1797 1796 
8 1335 1336 1357 1356 1776 1777 1798 1797 
8 1336 1337 1358 1357 1777 1778 1799 1798 
8 1337 1338 1359 1358 1778 1779 1800 1799 
8 1338 1339 1360 1359 1779 1780 1801 1800 
8 1339 1340 1361 1360 1780 1781 1802 1801 
8 1340 1341 1362 1361 1781 1782 1803 1802 
8 1341 1342 1363 1362 1782 1783 1804 1803 
8 1342 1343 1364 1363 1783 1784 1805 1804 
8 1344 1345 1366 1365 1785 1786 1807 1806 
8 1345 1346 1367 1366 1786 1787 1808 1807 
8 1346 1347 1368 1367 1787 1788 1809 1808 
8 1347 1348 1369 1368 1788 1789 1810 1809 
8 1348 1349 1370 1369 1789 1790 1811 1810 
8 1349 1350 1371 1370 1790 1791 1812 1811 
8 1350 1351 1372 1371 1791 1792 1813 1812 
8 1351 1352 1373 1372 1792 1793 1814 1813 
8 1352 1353 1374 1373 1793 1794 1815 1814 
8 1353 1354 1375 1374 1794 1795 1816 1815 
8 1354 1355 1376 1375 1795 1796 1817 1816 
8 1355 1356 1377 1376 1796 1797 1818 1817 
8 1356 1357 1378 1377 1797 1798 1819 1818 
8 1357 1358 1379 1378 1798 1799 1820 1819 
8 1358 1359 1380 1379 1799 1800 1821 1820 
8 1359 1360 1381 1380 1800 1801 1822 1821 
8 1360 1361 1382 1381 1801 1802 1823 1822 
8 1361 1362 1383 1382 1802 1803 1824 1823 
8 1362 1363 1384 1383 1803 1804 1825 1824 
8 1363 1364 1385 1384 1804 1805 1826 1825 
8 1365 1366 1387 1386 1806 1807 1828 1827 
8 1366 1367 1388 1387 1807 1808 1829 1828 
8 1367 1368 1389 1388 1808 1809 1830 1829 
8 1368 1369 1390 1389 1809 1810 1831 1830 
8 1369 1370 1391 1390 1810 1811 1832 1831 
8 1370 1371 1392 1391 1811 1812 1833 1832 
8 1371 1372 1393 1392 1812 1813 1834 1833 
8 1372 1373 1394 1393 1813 1814 1835 1834 
8 1373 1374 1395 1394 1814 1815 1836 1835 
8 1374 1375 1396 1395 1815 1816 1837 1836 
8 1375 1376 1397 1396 1816 1817 1838 1837 
8 1376 1377 1398 1397 1817 1818 1839 1838 
8 1377 1378 1399 1398 1818 1819 1840 1839 
8 1378 1379 1400 1399 1819 1820 1841 1840 
8 1379 1380 1401 1400 1820 1821 1842 1841 
8 1380 1381 1402 1401 1821 1822 1843 1842 
8 1381 1382 1403 1402 1822 1823 1844 1843 
8 1382 1383 1404 1403 1823 1824 1845 1844 
8 1383 1384 1405 1404 1824 1825 1846 1845 
8 1384 1385 1406 1405 1825 1826 1847 1846 
8 1386 1387 1408 1407 1827 1828 1849 1848 
8 1387 1388 1409 1408 1828 1829 1850 1849 
8 1388 1389 1410 1409 1829 1830 1851 1850 
8 1389 1390 1411 1410 1830 1831 1852 1851 
8 1390 1391 1412 1411 1831 1832 1853 1852 
8 1391 1392 1413 1412 1832 1833 1854 1853 
8 1392 1393 1414 1413 1833 1834 1855 1854 
8 1393 1394 1415 1414 1834 1835 1856 1855 
8 1394 1395 1416 1415 1835 1836 1857 1856 
8 1395 1396 1417 1416 1836 1837 1858 1857 
8 1396 1397 1418 1417 1837 1838 1859 1858 
8 1397 1398 1419 1418 1838 1839 1860 1859 
8 1398 1399 1420 1419 1839 1840 1861 1860 
8 1399 1400 1421 1420 1840 1841 1862 1861 
8 1400 1401 1422 1421 1841 1842 1863 1862 
8 1401 1402 1423 1422 1842 1843 1864 1863 
8 1402 1403 1424 1423 1843 1844 1865 1864 
8 1403 1404 1425 1424 1844 1845 1866 1865 
8 1404 1405 1426 1425 1845 1846 1867 1866 
8 1405 1406 1427 1426 1846 1847 1868 1867 
8 1407 1408 1429 1428 1848 1849 1870 1869 
8 1408 1409 1430 1429 1849 1850 1871 1870 
8 1409 1410 1431 1430 1850 1851 1872 1871 
8 1410 1411 1432 1431 1851 1852 1873 1872 
8 1411 1412 1433 1432 1852 1853 1874 1873 
8 1412 1413 1434 1433 1853 1854 1875 1874 
8 1413 1414 1435 1434 1854 1855 1876 1875 
8 1414 1415 1436 1435 1855 1856 1877 1876 
8 1415 1416 1437 1436 1856 1857 1878 1877 
8 1416 1417 1438 1437 1857 1858 1879 1878 
8 1417 1418 1439 1438 1858 1859 1880 1879 
8 1418 1419 1440 1439 1859 1860 1881 1880 
8 1419 1420 1441 1440 1860 1861 1882 1881 
8 1420 1421 1442 1441 1861 1862 1883 1882 
8 1421 1422 1443 1442 1862 1863 1884 1883 
8 1422 1423 1444 1443 1863 1864 1885 1884 
8 1423 1424 1445 1444 1864 1865 1886 1885 
8 1424 1425 1446 1445 1865 1866 1887 1886 
8 1425 1426 1447 1446 1866 1867 1888 1887 
8 1426 1427 1448 1447 1867 1868 1889 1888 
8 1428 1429 1450 1449 1869 1870 1891 1890 
8 1429 1430 1451 1450 1870 1871 1892 1891 
8 1430 1431 1452 1451 1871 1872 1893 1892 
8 1431 1432 1453 1452 1872 1873 1894 1893 
8 1432 1433 1454 1453 1873 1874 1895 1894 
8 1433 1434 1455 1454 1874 1875 1896 1895 
8 1434 1435 1456 1455 1875 1876 1897 1896 
8 1435 1436 1457 1456 1876 1877 1898 1897 
8 1436 1437 1458 1457 1877 1878 1899 1898 
8 1437 1438 1459 1458 1878 1879 1900 1899 
8 1438 1439 1460 1459 1879 1880 1901 1900 
8 1439 1440 1461 1460 1880 1881 1902 1901 
8 1440 1441 1462 1461 1881 1882 1903 1902 
8 1441 1442 1463 1462 1882 1883 1904 1903 
8 1442 1443 1464 1463 1883 1884 1905 1904 
8 1443 1444 1465 1464 1884 1885 1906 1905 
8 1444 1445 1466 1465 1885 1886 1907 1906 
8 1445 1446 1467 1466 1886 1887 1908 1907 
8 1446 1447 1468 1467 1887 1888 1909 1908 
8 1447 1448 1469 1468 1888 1889 1910 1909 
8 1449 1450 1471 1470 1890 1891 1912 1911 
8 1450 1451 1472 1471 1891 1892 1913 1912 
8 1451 1452 1473 1472 1892 1893 1914 1913 
8 1452 1453 1474 1473 1893 1894 1915 1914 
8 1453 1454 1475 1474 1894 1895 1916 1915 
8 1454 1455 1476 1475 1895 1896 1917 1916 
8 1455 1456 1477 1476 1896 1897 1918 1917 
8 1456 1457 1478 1477 1897 1898 1919 1918 
8 1457 1458 1479 1478 1898 1899 1920 1919 
8 1458 1459 1480 1479 1899 1900 1921 1920 
8 1459 1460 1481 1480 1900 1901 1922 1921 
8 1460 1461 1482 1481 1901 1902 1923 1922 
8 1461 1462 1483 1482 1902 1903 1924 1923 
8 1462 1463 1484 1483 1903 1904 1925 1924 
8 1463 1464 1485 1484 1904 1905 1926 1925 
8 1464 1465 1486 1485 1905 1906 1927 1926 
8 1465 1466 1487 1486 1906 1907 1928 1927 
8 1466 1467 1488 1487 1907 1908 1929 1928 
8 1467 1468 1489 1488 1908 1909 1930 1929 
8 1468 1469 1490 1489 1909 1910 1931 1930 
8 1470 1471 1492 1491 1911 1912 1933 1932 
8 1471 1472 1493 1492 1912 1913 1934 1933 
8 1472 1473 1494 1493 1913 1914 1935 1934 
8 1473 1474 1495 1494 1914 1915 1936 1935 
8 1474 1475 1496 1495 1915 1916 1937 1936 
8 1475 1476 1497 1496 1916 1917 1938 1937 
8 1476 1477 1498 1497 1917 1918 1939 1938 
8 1477 1478 1499 1498 1918 1919 1940 1939 
8 1478 1479 1500 1499 1919 1920 1941 1940 
8 1479 1480 1501 1500 1920 1921 1942 1941 
8 1480 1481 1502 1501 1921 1922 1943 1942 
8 1481 1482 1503 1502 1922 1923 1944 1943 
8 1482 1483 1504 1503 1923 1924 1945 1944 
8 1483 1484 1505 1504 1924 1925 1946 1945 
8 1484 1485 1506 1505 1925 1926 1947 1946 
8 1485 1486 1507 1506 1926 1927 1948 1947 
8 1486 1487 1508 1507 1927 1928 1949 1948 
8 1487 1488 1509 1508 1928 1929 1950 1949 
8 1488 1489 1510 1509 1929 1930 1951 1950 
8 1489 1490 1511 1510 1930 1931 1952 1951 
8 1491 1492 1513 1512 1932 1933 1954 1953 
8 1492 1493 1514 1513 1933 1934 1955 1954 
8 1493 1494 1515 1514 1934 1935 1956 1955 
8 1494 1495 1516 1515 1935 1936 1957 1956 
8 1495 1496 1517 1516 1936 1937 1958 1957 
8 1496 1497 1518 1517 1937 1938 1959 1958 
8 1497 1498 1519 1518 1938 1939 1960 1959 
8 1498 1499 1520 1519 1939 1940 1961 1960 
8 1499 1500 1521 1520 1940 1941 1962 1961 
8 1500 1501 1522 1521 1941 1942 1963 1962 
8 1501 1502 1523 1522 1942 1943 1964 1963 
8 1502 1503 1524 1523 1943 1944 1965 1964 
8 1503 1504 1525 1524 1944 1945 1966 1965 
8 1504 1505 1526 1525 1945 1946 1967 1966 
8 1505 1506 1527 1526 1946 1947 1968 1967 
8 1506 1507 1528 1527 1947 1948 1969 1968 
8 1507 1508 1529 1528 1948 1949 1970 1969 
8 1508 1509 1530 1529 1949 1950 1971 1970 
8 1509 1510 1531 1530 1950 1951 1972 1971 
8 1510 1511 1532 1531 1951 1952 1973 1972 
8 1512 1513 1534 1533 1953 1954 1975 1974 
8 1513 1514 1535 1534 1954 1955 1976 1975 
8 1514 1515 1536 1535 1955 1956 1977 1976 
8 1515 1516 1537 1536 1956 1957 1978 1977 
8 1516 1517 1538 1537 1957 1958 1979 1978 
8 1517 1518 1539 1538 1958 1959 1980 1979 
8 1518 1519 1540 1539 1959 1960 1981 1980 
8 1519 1520 1541 1540 1960 1961 1982 1981 
8 1520 1521 1542 1541 1961 1962 1983 1982 
8 1521 1522 1543 1542 1962 1963 1984 1983 
8 1522 1523 1544 1543 1963 1964 1985 1984 
8 1523 1524 1545 1544 1964 1965 1986 1985 
8 1524 1525 1546 1545 1965 1966 1987 1986 
8 1525 1526 1547 1546 1966 1967 1988 1987 
8 1526 1527 1548 1547 1967 1968 1989 1988 
8 1527 1528 1549 1548 1968 1969 1990 1989 
8 1528 1529 1550 1549 1969 1970 1991 1990 
8 1529 1530 1551 1550 1970 1971 1992 1991 
8 1530 1531 1552 1551 1971 1972 1993 1992 
8 1531 1532 1553 1552 1972 1973 1994 1993 
8 1533 1534 1555 1554 1974 1975 1996 1995 
8 1534 1535 1556 1555 1975 1976 1997 1996 
8 1535 1536 1557 1556 1976 1977 1998 1997 
8 1536 1537 1558 1557 1977 1978 1999 1998 
8 1537 1538 1559 1558 1978 1979 2000 1999 
8 1538 1539 1560 1559 1979 1980 2001 2000 
8 1539 1540 1561 1560 1980 1981 2002 2001 
8 1540 1541 1562 1561 1981 1982 2003 2002 
8 1541 1542 1563 1562 1982 1983 2004 2003 
8 1542 1543 1564 1563 1983 1984 2005 2004 
8 1543 1544 1565 1564 1984 1985 2006 2005 
8 1544 1545 1566 1565 1985 1986 2007 2006 
8 1545 1546 1567 1566 1986 1987 2008 2007 
8 1546 1547 1568 1567 1987 1988 2009 2008 
8 1547 1548 1569 1568 1988 1989 2010 2009 
8 1548 1549 1570 1569 1989 1990 2011 2010 
8 1549 1550 1571 1570 1990 1991 2012 2011 
8 1550 1551 1572 1571 1991 1992 2013 2012 
8 1551 1552 1573 1572 1992 1993 2014 2013 
8 1552 1553 1574 1573 1993 1994 2015 2014 
8 1554 1555 1576 1575 1995 1996 2017 2016 
8 1555 1556 1577 1576 1996 1997 2018 2017 
8 1556 1557 1578 1577 1997 1998 2019 2018 
8 1557 1558 1579 1578 1998 1999 2020 2019 
8 1558 1559 1580 1579 1999 2000 2021 2020 
8 1559 1560 1581 1580 2000 2001 2022 2021 
8 1560 1561 1582 1581 2001 2002 2023 2022 
8 1561 1562 1583 1582 2002 2003 2024 2023 
8 1562 1563 1584 1583 2003 2004 2025 2024 
8 1563 1564 1585 1584 2004 2005 2026 2025 
8 1564 1565 1586 1585 2005 2006 2027 2026 
8 1565 1566 1587 1586 2006 2007 2028 2027 
8 1566 1567 1588 1587 2007 2008 2029 2028 
8 1567 1568 1589 1588 2008 2009 2030 2029 
8 1568 1569 1590 1589 2009 2010 2031 2030 
8 1569 1570 1591 1590 2010 2011 2032 2031 
8 1570 1571 1592 1591 2011 2012 2033 2032 
8 1571 1572 1593 1592 2012 2013 2034 2033 
8 1572 1573 1594 1593 2013 2014 2035 2034 
8 1573 1574 1595 1594 2014 2015 2036 2035 
8 1575 1576 1597 1596 2016 2017 2038 2037 
8 1576 1577 1598 1597 2017 2018 2039 2038 
8 1577 1578 1599 1598 2018 2019 2040 2039 
8 1578 1579 1600 1599 2019 2020 2041 2040 
8 1579 1580 1601 1600 2020 2021 2042 2041 
8 1580 1581 1602 1601 2021 2022 2043 2042 
8 1581 1582 1603 1602 2022 2023 2044 2043 
8 1582 1583 1604 1603 2023 2024 2045 2044 
8 1583 1584 1605 1604 2024 2025 2046 2045 
8 1584 1585 1606 1605 2025 2026 2047 2046 
8 1585 1586 1607 1606 2026 2027 2048 2047 
8 1586 1587 1608 1607 2027 2028 2049 2048 
8 1587 1588 1609 1608 2028 2029 2050 2049 
8 1588 1589 1610 1609 2029 2030 2051 2050 
8 1589 1590 1611 1610 2030 2031 2052 2051 
8 1590 1591 1612 1611 2031 2032 2053 2052 
8 1591 1592 1613 1612 2032 2033 2054 2053 
8 1592 1593 1614 1613 2033 2034 2055 2054 
8 1593 1594 1615 1614 2034 2035 2056 2055 
8 1594 1595 1616 1615 2035 2036 2057 2056 
8 1596 1597 1618 1617 2037 2038 2059 2058 
8 1597 1598 1619 1618 2038 2039 2060 2059 
8 1598 1599 1620 1619 2039 2040 2061 2060 
8 1599 1600 1621 1620 2040 2041 2062 2061 
8 1600 1601 1622 1621 2041 2042 2063 2062 
8 1601 1602 1623 1622 2042 2043 2064 2063 
8 1602 1603 1624 1623 2043 2044 2065 2064 
8 1603 1604 1625 1624 2044 2045 2066 2065 
8 1604 1605 1626 1625 2045 2046 2067 2066 
8 1605 1606 1627 1626 2046 2047 2068 2067 
8 1606 1607 1628 1627 2047 2048 2069 2068 
8 1607 1608 1629 1628 2048 2049 2070 2069 
8 1608 1609 1630 1629 2049 2050 2071 2070 
8 1609 1610 1631 1630 2050 2051 2072 2071 
8 1610 1611 1632 1631 2051 2052 2073 2072 
8 1611 1612 1633 1632 2052 2053 2074 2073 
8 1612 1613 1634 1633 2053 2054 2075 2074 
8 1613 1614 1635 1634 2054 2055 2076 2075 
8 1614 1615 1636 1635 2055 2056 2077 2076 
8 1615 1616 1637 1636 2056 2057 2078 2077 
8 1617 1618 1639 1638 2058 2059 2080 2079 
8 1618 1619 1640 1639 2059 2060 2081 2080 
8 1619 1620 1641 1640 2060 2061 2082 2081 
8 1620 1621 1642 1641 2061 2062 2083 2082 
8 1621 1622 1643 1642 2062 2063 2084 2083 
8 1622 1623 1644 1643 2063 2064 2085 2084 
8 1623 1624 1645 1644 2064 2065 2086 2085 
8 1624 1625 1646 1645 2065 2066 2087 2086 
8 1625 1626 1647 1646 2066 2067 2088 2087 
8 1626 1627 1648 1647 2067 2068 2089 2088 
8 1627 1628 1649 1648 2068 2069 2090 2089 
8 1628 1629 1650 1649 2069 2070 2091 2090 
8 1629 1630 1651 1650 2070 2071 2092 2091 
8 1630 1631 1652 1651 2071 2072 2093 2092 
8 1631 1632 1653 1652 2072 2073 2094 2093 
8 1632 1633 1654 1653 2073 2074 2095 2094 
8 1633 1634 1655 1654 2074 2075 2096 2095 
8 1634 1635 1656 1655 2075 2076 2097 2096 
8 1635 1636 1657 1656 2076 2077 2098 2097 
8 1636 1637 1658 1657 2077 2078 2099 2098 
8 1638 1639 1660 1659 2079 2080 2101 2100 
8 1639 1640 1661 1660 2080 2081 2102 2101 
8 1640 1641 1662 1661 2081 2082 2103 2102 
8 1641 1642 1663 1662 2082 2083 2104 2103 
8 1642 1643 1664 1663 2083 2084 2105 2104 
8 1643 1644 1665 1664 2084 2085 2106 2105 
8 1644 1645 1666 1665 2085 2086 2107 2106 
8 1645 1646 1667 1666 2086 2087 2108 2107 
8 1646 1647 1668 1667 2087 2088 2109 2108 
8 1647 1648 1669 1668 2088 2089 2110 2109 
8 1648 1649 1670 1669 2089 2090 2111 2110 
8 1649 1650 1671 1670 2090 2091 2112 2111 
8 1650 1651 1672 1671 2091 2092 2113 2112 
8 1651 1652 1673 1672 2092 2093 2114 2113 
8 1652 1653 1674 1673 2093 2094 2115 2114 
8 1653 1654 1675 1674 2094 2095 2116 2115 
8 1654 1655 1676 1675 2095 2096 2117 2116 
8 1655 1656 1677 1676 2096 2097 2118 2117 
8 1656 1657 1678 1677 2097 2098 2119 2118 
8 1657 1658 1679 1678 2098 2099 2120 2119 
8 1659 1660 1681 1680 2100 2101 2122 2121 
8 1660 1661 1682 1681 2101 2102 2123 2122 
8 1661 1662 1683 1682 2102 2103 2124 2123 
8 1662 1663 1684 1683 2103 2104 2125 2124 
8 1663 1664 1685 1684 2104 2105 2126 2125 
8 1664 1665 1686 1685 2105 2106 2127 2126 
8 1665 1666 1687 1686 2106 2107 2128 2127 
8 1666 1667 1688 1687 2107 2108 2129 2128 
8 1667 1668 1689 1688 2108 2109 2130 2129 
8 1668 1669 1690 1689 2109 2110 2131 2130 
8 1669 1670 1691 1690 2110 2111 2132 2131 
8 1670 1671 1692 1691 2111 2112 2133 2132 
8 1671 1672 1693 1692 2112 2113 2134 2133 
8 1672 1673 1694 1693 2113 2114 2135 2134 
8 1673 1674 1695 1694 2114 2115 2136 2135 
8 1674 1675 1696 1695 2115 2116 2137 2136 
8 1675 1676 1697 1696 2116 2117 2138 2137 
8 1676 1677 1698 1697 2117 2118 2139 2138 
8 1677 1678 1699 1698 2118 2119 2140 2139 
8 1678 1679 1700 1699 2119 2120 2141 2140 
8 1680 1681 1702 1701 2121 2122 2143 2142 
8 1681 1682 1703 1702 2122 2123 2144 2143 
8 1682 1683 1704 1703 2123 2124 2145 2144 
8 1683 1684 1705 1704 2124 2125 2146 2145 
8 1684 1685 1706 1705 2125 2126 2147 2146 
8 1685 1686 1707 1706 2126 2127 2148 2147 
8 1686 1687 1708 1707 2127 2128 2149 2148 
8 1687 1688 1709 1708 2128 2129 2150 2149 
8 1688 1689 1710 1709 2129 2130 2151 2150 
8 1689 1690 1711 1710 2130 2131 2152 2151 
8 1690 1691 1712 1711 2131 2132 2153 2152 
8 1691 1692 1713 1712 2132 2133 2154 2153 
8 1692 1693 1714 1713 2133 2134 2155 2154 
8 1693 1694 1715 1714 2134 2135 2156 2155 
8 1694 1695 1716 1715 2135 2136 2157 2156 
8 1695 1696 1717 1716 2136 2137 2158 2157 
8 1696 1697 1718 1717 2137 2138 2159 2158 
8 1697 1698 1719 1718 2138 2139 2160 2159 
8 1698 1699 1720 1719 2139 2140 2161 2160 
8 1699 1700 1721 1720 2140 2141 2162 2161 
8 1701 1702 1723 1722 2142 2143 2164 2163 
8 1702 1703 1724 1723 2143 2144 2165 2164 
8 1703 1704 1725 1724 2144 2145 2166 2165 
8 1704 1705 1726 1725 2145 2146 2167 2166 
8 1705 1706 1727 1726 2146 2147 2168 2167 
8 1706 1707 1728 1727 2147 2148 2169 2168 
8 1707 1708 1729 1728 2148 2149 2170 2169 
8 1708 1709 1730 1729 2149 2150 2171 2170 
8 1709 1710 1731 1730 2150 2151 2172 2171 
8 1710 1711 1732 1731 2151 2152 2173 2172 
8 1711 1712 1733 1732 2152 2153 2174 2173 
8 1712 1713 1734 1733 2153 2154 2175 2174 
8 1713 1714 1735 1734 2154 2155 2176 2175 
8 1714 1715 1736 1735 2155 2156 2177 2176 
8 1715 1716 1737 1736 2156 2157 2178 2177 
8 1716 1717 1738 1737 2157 2158 2179 2178 
8 1717 1718 1739 1738 2158 2159 2180 2179 
8 1718 1719 1740 1739 2159 2160 2181 2180 
8 1719 1720 1741 1740 2160 2161 2182 2181 
8 1720 1721 1742 1741 2161 2162 2183 2182 
8 1722 1723 1744 1743 2163 2164 2185 2184 
8 1723 1724 1745 1744 2164 2165 2186 2185 
8 1724 1725 1746 1745 2165 2166 2187 2186 
8 1725 1726 1747 1746 2166 2167 2188 2187 
8 1726 1727 1748 1747 2167 2168 2189 2188 
8 1727 1728 1749 1748 2168 2169 2190 2189 
8 1728 1729 1750 1749 2169 2170 2191 2190 
8 1729 1730 1751 1750 2170 2171 2192 2191 
8 1730 1731 1752 1751 2171 2172 2193 2192 
8 1731 1732 1753 1752 2172 2173 2194 2193 
8 1732 1733 1754 1753 2173 2174 2195 2194 
8 1733 1734 1755 1754 2174 2175 2196 2195 
8 1734 1735 1756 1755 2175 2176 2197 2196 
8 1735 1736 1757 1756 2176 2177 2198 2197 
8 1736 1737 1758 1757 2177 2178 2199 2198 
8 1737 1738 1759 1758 2178 2179 2200 2199 
8 1738 1739 1760 1759 2179 2180 2201 2200 
8 1739 1740 1761 1760 2180 2181 2202 2201 
8 1740 1741 1762 1761 2181 2182 2203 2202 
8 1741 1742 1763 1762 2182 2183 2204 2203 
8 1764 1765 1786 1785 2205 2206 2227 2226 
8 1765 1766 1787 1786 2206 2207 2228 2227 
8 1766 1767 1788 1787 2207 2208 2229 2228 
8 1767 1768 1789 1788 2208 2209 2230 2229 
8 1768 1769 1790 1789 2209 2210 2231 2230 
8 1769 1770 1791 1790 2210 2211 2232 2231 
8 1770 1771 1792 1791 2211 2212 2233 2232 
8 1771 1772 1793 1792 2212 2213 2234 2233 
8 1772 1773 1794 1793 2213 2214 2235 2234 
8 1773 1774 1795 1794 2214 2215 2236 2235 
8 1774 1775 1796 1795 2215 2216 2237 2236 
8 1775 1776 1797 1796 2216 2217 2238 2237 
8 1776 1777 1798 1797 2217 2218 2239 2238 
8 1777 1778 1799 1798 2218 2219 2240 2239 
8 1778 1779 1800 1799 2219 2220 2241 2240 
8 1779 1780 1801 1800 2220 2221 2242 2241 
8 1780 1781 1802 1801 2221 2222 2243 2242 
8 1781 1782 1803 1802 2222 2223 2244 2243 
8 1782 1783 1804 1803 2223 2224 2245 2244 
8 1783 1784 1805 1804 2224 2225 2246 2245 
8 1785 1786 1807 1806 2226 2227 2248 2247 
8 1786 1787 1808 1807 2227 2228 2249 2248 
8 1787 1788 1809 1808 2228 2229 2250 2249 
8 1788 1789 1810 1809 2229 2230 2251 2250 
8 1789 1790 1811 1810 2230 2231 2252 2251 
8 1790 1791 1812 1811 2231 2232 2253 2252 
8 1791 1792 1813 1812 2232 2233 2254 2253 
8 1792 1793 1814 1813 2233 2234 2255 2254 
8 1793 1794 1815 1814 2234 2235 2256 2255 
8 1794 1795 1816 1815 2235 2236 2257 2256 
8 1795 1796 1817 1816 2236 2237 2258 2257 
8 1796 1797 1818 1817 2237 2238 2259 2258 
8 1797 1798 1819 1818 2238 2239 2260 2259 
8 1798 1799 1820 1819 2239 2240 2261 2260 
8 1799 1800 1821 1820 2240 2241 2262 2261 
8 1800 1801 1822 1821 2241 2242 2263 2262 
8 1801 1802 1823 1822 2242 2243 2264 2263 
8 1802 1803 1824 1823 2243 2244 2265 2264 
8 1803 1804 1825 1824 2244 2245 2266 2265 
8 1804 1805 1826 1825 2245 2246 2267 2266 
8 1806 1807 1828 1827 2247 2248 2269 2268 
8 1807 1808 1829 1828 2248 2249 2270 2269 
8 1808 1809 1830 1829 2249 2250 2271 2270 
8 1809 1810 1831 1830 2250 2251 2272 2271 
8 1810 1811 1832 1831 2251 2252 2273 2272 
8 1811 1812 1833 1832 2252 2253 2274 2273 
8 1812 1813 1834 1833 2253 2254 2275 2274 
8 1813 1814 1835 1834 2254 2255 2276 2275 
8 1814 1815 1836 1835 2255 2256 2277 2276 
8 1815 1816 1837 1836 2256 2257 2278 2277 
8 1816 1817 1838 1837 2257 2258 2279 2278 
8 1817 1818 1839 1838 2258 2259 2280 2279 
8 1818 1819 1840 1839 2259 2260 2281 2280 
8 1819 1820 1841 1840 2260 2261 2282 2281 
8 1820 1821 1842 1841 2261 2262 2283 2282 
8 1821 1822 1843 1842 2262 2263 2284 2283 
8 1822 1823 1844 1843 2263 2264 2285 2284 
8 1823 1824 1845 1844 2264 2265 2286 2285 
8 1824 1825 1846 1845 2265 2266 2287 2286 
8 1825 1826 1847 1846 2266 2267 2288 2287 
8 1827 1828 1849 1848 2268 2269 2290 2289 
8 1828 1829 1850 1849 2269 2270 2291 2290 
8 1829 1830 1851 1850 2270 2271 2292 2291 
8 1830 1831 1852 1851 2271 2272 2293 2292 
8 1831 1832 1853 1852 2272 2273 2294 2293 
8 1832 1833 1854 1853 2273 2274 2295 2294 
8 1833 1834 1855 1854 2274 2275 2296 2295 
8 1834 1835 1856 1855 2275 2276 2297 2296 
8 1835 1836 1857 1856 2276 2277 2298 2297 
8 1836 1837 1858 1857 2277 2278 2299 2298 
8 1837 1838 1859 1858 2278 2279 2300 2299 
8 1838 1839 1860 1859 2279 2280 2301 2300 
8 1839 1840 1861 1860 2280 2281 2302 2301 
8 1840 1841 1862 1861 2281 2282 2303 2302 
8 1841 1842 1863 1862 2282 2283 2304 2303 
8 1842 1843 1864 1863 2283 2284 2305 2304 
8 1843 1844 1865 1864 2284 2285 2306 2305 
8 1844 1845 1866 1865 2285 2286 2307 2306 
8 1845 1846 1867 1866 2286 2287 2308 2307 
8 1846 1847 1868 1867 2287 2288 2309 2308 
8 1848 1849 1870 1869 2289 2290 2311 2310 
8 1849 1850 1871 1870 2290 2291 2312 2311 
8 1850 1851 1872 1871 2291 2292 2313 2312 
8 1851 1852 1873 1872 2292 2293 2314 2313 
8 1852 1853 1874 1873 2293 2294 2315 2314 
8 1853 1854 1875 1874 2294 2295 2316 2315 
8 1854 1855 1876 1875 2295 2296 2317 2316 
8 1855 1856 1877 1876 2296 2297 2318 2317 
8 1856 1857 1878 1877 2297 2298 2319 2318 
8 1857 1858 1879 1878 2298 2299 2320 2319 
8 1858 1859 1880 1879 2299 2300 2321 2320 
8 1859 1860 1881 1880 2300 2301 2322 2321 
8 1860 1861 1882 1881 2301 2302 2323 2322 
8 1861 1862 1883 1882 2302 2303 2324 2323 
8 1862 1863 1884 1883 2303 2304 2325 2324 
8 1863 1864 1885 1884 2304 2305 2326 2325 
8 1864 1865 1886 1885 2305 2306 2327 2326 
8 1865 1866 1887 1886 2306 2307 2328 2327 
8 1866 1867 1888 1887 2307 2308 2329 2328 
8 1867 1868 1889 1888 2308 2309 2330 2329 
8 1869 1870 1891 1890 2310 2311 2332 2331 
8 1870 1871 1892 1891 2311 2312 2333 2332 
8 1871 1872 1893 1892 2312 2313 2334 2333 
8 1872 1873 1894 1893 2313 2314 2335 2334 
8 1873 1874 1895 1894 2314 2315 2336 2335 
8 1874 1875 1896 1895 2315 2316 2337 2336 
8 1875 1876 1897 1896 2316 2317 2338 2337 
8 1876 1877 1898 1897 2317 2318 2339 2338 
8 1877 1878 1899 1898 2318 2319 2340 2339 
8 1878 1879 1900 1899 2319 2320 2341 2340 
8 1879 1880 1901 1900 2320 2321 2342 2341 
8 1880 1881 1902 1901 2321 2322 2343 2342 
8 1881 1882 1903 1902 2322 2323 2344 2343 
8 1882 1883 1904 1903 2323 2324 2345 2344 
8 1883 1884 1905 1904 2324 2325 2346 2345 
8 1884 1885 1906 1905 2325 2326 2347 2346 
8 1885 1886 1907 1906 2326 2327 2348 2347 
8 1886 1887 1908 1907 2327 2328 2349 2348 
8 1887 1888 1909 1908 2328 2329 2350 2349 
8 1888 1889 1910 1909 2329 2330 2351 2350 
8 1890 1891 1912 1911 2331 2332 2353 2352 
8 1891 1892 1913 1912 2332 2333 2354 2353 
8 1892 1893 1914 1913 2333 2334 2355 2354 
8 1893 1894 1915 1914 2334 2335 2356 2355 
8 1894 1895 1916 1915 2335 2336 2357 2356 
8 1895 1896 1917 1916 2336 2337 2358 2357 
8 1896 1897 1918 1917 2337 2338 2359 2358 
8 1897 1898 1919 1918 2338 2339 2360 2359 
8 1898 1899 1920 1919 2339 2340 2361 2360 
8 1899 1900 1921 1920 2340 2341 2362 2361 
8 1900 1901 1922 1921 2341 2342 2363 2362 
8 1901 1902 1923 1922 2342 2343 2364 2363 
8 1902 1903 1924 1923 2343 2344 2365 2364 
8 1903 1904 1925 1924 2344 2345 2366 2365 
8 1904 1905 1926 1925 2345 2346 2367 2366 
8 1905 1906 1927 1926 2346 2347 2368 2367 
8 1906 1907 1928 1927 2347 2348 2369 2368 
8 1907 1908 1929 1928 2348 2349 2370 2369 
8 1908 1909 1930 1929 2349 2350 2371 2370 
8 1909 1910 1931 1930 2350 2351 2372 2371 
8 1911 1912 1933 1932 2352 2353 2374 2373 
8 1912 1913 1934 1933 2353 2354 2375 2374 
8 1913 1914 1935 1934 2354 2355 2376 2375 
8 1914 1915 1936 1935 2355 2356 2377 2376 
8 1915 1916 1937 1936 2356 2357 2378 2377 
8 1916 1917 1938 1937 2357 2358 2379 2378 
8 1917 1918 1939 1938 2358 2359 2380 2379 
8 1918 1919 1940 1939 2359 2360 2381 2380 
8 1919 1920 1941 1940 2360 2361 2382 2381 
8 1920 1921 1942 1941 2361 2362 2383 2382 
8 1921 1922 1943 1942 2362 2363 2384 2383 
8 1922 1923 1944 1943 2363 2364 2385 2384 
8 1923 1924 1945 1944 2364 2365 2386 2385 
8 1924 1925 1946 1945 2365 2366 2387 2386 
8 1925 1926 1947 1946 2366 2367 2388 2387 
8 1926 1927 1948 1947 2367 2368 2389 2388 
8 1927 1928 1949 1948 2368 2369 2390 2389 
8 1928 1929 1950 1949 2369 2370 2391 2390 
8 1929 1930 1951 1950 2370 2371 2392 2391 
8 1930 1931 1952 1951 2371 2372 2393 2392 
8 1932 1933 1954 1953 2373 2374 2395 2394 
8 1933 1934 1955 1954 2374 2375 2396 2395 
8 1934 1935 1956 1955 2375 2376 2397 2396 
8 1935 1936 1957 1956 2376 2377 2398 2397 
8 1936 1937 1958 1957 2377 2378 2399 2398 
8 1937 1938 1959 1958 2378 2379 2400 2399 
8 1938 1939 1960 1959 2379 2380 2401 2400 
8 1939 1940 1961 1960 2380 2381 2402 2401 
8 1940 1941 1962 1961 2381 2382 2403 2402 
8 1941 1942 1963 1962 2382 2383 2404 2403 
8 1942 1943 1964 1963 2383 2384 2405 2404 
8 1943 1944 1965 1964 2384 2385 2406 2405 
8 1944 1945 1966 1965 2385 2386 2407 2406 
8 1945 1946 1967 1966 2386 2387 2408 2407 
8 1946 1947 1968 1967 2387 2388 2409 2408 
8 1947 1948 1969 1968 2388 2389 2410 2409 
8 1948 1949 1970 1969 2389 2390 2411 2410 
8 1949 1950 1971 1970 2390 2391 2412 2411 
8 1950 1951 1972 1971 2391 2392 2413 2412 
8 1951 1952 1973 1972 2392 2393 2414 2413 
8 1953 1954 1975 1974 2394 2395 2416 2415 
8 1954 1955 1976 1975 2395 2396 2417 2416 
8 1955 1956 1977 1976 2396 2397 2418 2417 
8 1956 1957 1978 1977 2397 2398 2419 2418 
8 1957 1958 1979 1978 2398 2399 2420 2419 
8 1958 1959 1980 1979 2399 2400 2421 2420 
8 1959 1960 1981 1980 2400 2401 2422 2421 
8 1960 1961 1982 1981 2401 2402 2423 2422 
8 1961 1962 1983 1982 2402 2403 2424 2423 
8 1962 1963 1984 1983 2403 2404 2425 2424 
8 1963 1964 1985 1984 2404 2405 2426 2425 
8 1964 1965 1986 1985 2405 2406 2427 2426 
8 1965 1966 1987 1986 2406 2407 2428 2427 
8 1966 1967 1988 1987 2407 2408 2429 2428 
8 1967 1968 1989 1988 2408 2409 2430 2429 
8 1968 1969 1990 1989 2409 2410 2431 2430 
8 1969 1970 1991 1990 2410 2411 2432 2431 
8 1970 1971 1992 1991 2411 2412 2433 2432 
8 1971 1972 1993 1992 2412 2413 2434 2433 
8 1972 1973 1994 1993 2413 2414 2435 2434 
8 1974 1975 1996 1995 2415 2416 2437 2436 
8 1975 1976 1997 1996 2416 2417 2438 2437 
8 1976 1977 1998 1997 2417 2418 2439 2438 
8 1977 1978 1999 1998 2418 2419 2440 2439 
8 1978 1979 2000 1999 2419 2420 2441 2440 
8 1979 1980 2001 2000 2420 2421 2442 2441 
8 1980 1981 2002 2001 2421 2422 2443 2442 
8 1981 1982 2003 2002 2422 2423 2444 2443 
8 1982 1983 2004 2003 2423 2424 2445 2444 
8 1983 1984 2005 2004 2424 2425 2446 2445 
8 1984 1985 2006 2005 2425 2426 2447 2446 
8 1985 1986 2007 2006 2426 2427 2448 2447 
8 1986 1987 2008 2007 2427 2428 2449 2448 
8 1987 1988 2009 2008 2428 2429 2450 2449 
8 1988 1989 2010 2009 2429 2430 2451 2450 
8 1989 1990 2011 2010 2430 2431 2452 2451 
8 1990 1991 2012 2011 2431 2432 2453 2452 
8 1991 1992 2013 2012 2432 2433 2454 2453 
8 1992 1993 2014 2013 2433 2434 2455 2454 
8 1993 1994 2015 2014 2434 2435 2456 2455 
8 1995 1996 2017 2016 2436 2437 2458 2457 
8 1996 1997 2018 2017 2437 2438 2459 2458 
8 1997 1998 2019 2018 2438 2439 2460 2459 
8 1998 1999 2020 2019 2439 2440 2461 2460 
8 1999 2000 2021 2020 2440 2441 2462 2461 
8 2000 2001 2022 2021 2441 2442 2463 2462 
8 2001 2002 2023 2022 2442 2443 2464 2463 
8 2002 2003 2024 2023 2443 2444 2465 2464 
8 2003 2004 2025 2024 2444 2445 2466 2465 
8 2004 2005 2026 2025 2445 2446 2467 2466 
8 2005 2006 2027 2026 2446 2447 2468 2467 
8 2006 2007 2028 2027 2447 2448 2469 2468 
8 2007 2008 2029 2028 2448 2449 2470 2469 
8 2008 2009 2030 2029 2449 2450 2471 2470 
8 2009 2010 2031 2030 2450 2451 2472 2471 
8 2010 2011 2032 2031 2451 2452 2473 2472 
8 2011 2012 2033 2032 2452 2453 2474 2473 
8 2012 2013 2034 2033 2453 2454 2475 2474 
8 2013 2014 2035 2034 2454 2455 2476 2475 
8 2014 2015 2036 2035 2455 2456 2477 2476 
8 2016 2017 2038 2037 2457 2458 2479 2478 
8 2017 2018 2039 2038 2458 2459 2480 2479 
8 2018 2019 2040 2039 2459 2460 2481 2480 
8 2019 2020 2041 2040 2460 2461 2482 2481 
8 2020 2021 2042 2041 2461 2462 2483 2482 
8 2021 2022 2043 2042 2462 2463 2484 2483 
8 2022 2023 2044 2043 2463 2464 2485 2484 
8 2023 2024 2045 2044 2464 2465 2486 2485 
8 2024 2025 2046 2045 2465 2466 2487 2486 
8 2025 2026 2047 2046 2466 2467 2488 2487 
8 2026 2027 2048 2047 2467 2468 2489 2488 
8 2027 2028 2049 2048 2468 2469 2490 2489 
8 2028 2029 2050 2049 2469 2470 2491 2490 
8 2029 2030 2051 2050 2470 2471 2492 2491 
8 2030 2031 2052 2051 2471 2472 2493 2492 
8 2031 2032 2053 2052 2472 2473 2494 2493 
8 2032 2033 2054 2053 2473 2474 2495 2494 
8 2033 2034 2055 2054 2474 2475 2496 2495 
8 2034 2035 2056 2055 2475 2476 2497 2496 
8 2035 2036 2057 2056 2476 2477 2498 2497 
8 2037 2038 2059 2058 2478 2479 2500 2499 
8 2038 2039 2060 2059 2479 2480 2501 2500 
8 2039 2040 2061 2060 2480 2481 2502 2501 
8 2040 2041 2062 2061 2481 2482 2503 2502 
8 2041 2042 2063 2062 2482 2483 2504 2503 
8 2042 2043 2064 2063 2483 2484 2505 2504 
8 2043 2044 2065 2064 2484 2485 2506 2505 
8 2044 2045 2066 2065 2485 2486 2507 2506 
8 2045 2046 2067 2066 2486 2487 2508 2507 
8 2046 2047 2068 2067 2487 2488 2509 2508 
8 2047 2048 2069 2068 2488 2489 2510 2509 
8 2048 2049 2070 2069 2489 2490 2511 2510 
8 2049 2050 2071 2070 2490 2491 2512 2511 
8 2050 2051 2072 2071 2491 2492 2513 2512 
8 2051 2052 2073 2072 2492 2493 2514 2513 
8 2052 2053 2074 2073 2493 2494 2515 2514 
8 2053 2054 2075 2074 2494 2495 2516 2515 
8 2054 2055 2076 2075 2495 2496 2517 2516 
8 2055 2056 2077 2076 2496 2497 2518 2517 
8 2056 2057 2078 2077 2497 2498 2519 2518 
8 2058 2059 2080 2079 2499 2500 2521 2520 
8 2059 2060 2081 2080 2500 2501 2522 2521 
8 2060 2061 2082 2081 2501 2502 2523 2522 
8 2061 2062 2083 2082 2502 2503 2524 2523 
8 2062 2063 2084 2083 2503 2504 2525 2524 
8 2063 2064 2085 2084 2504 2505 2526 2525 
8 2064 2065 2086 2085 2505 2506 2527 2526 
8 2065 2066 2087 2086 2506 2507 2528 2527 
8 2066 2067 2088 2087 2507 2508 2529 2528 
8 2067 2068 2089 2088 2508 2509 2530 2529 
8 2068 2069 2090 2089 2509 2510 2531 2530 
8 2069 2070 2091 2090 2510 2511 2532 2531 
8 2070 2071 2092 2091 2511 2512 2533 2532 
8 2071 2072 2093 2092 2512 2513 2534 2533 
8 2072 2073 2094 2093 2513 2514 2535 2534 
8 2073 2074 2095 2094 2514 2515 2536 2535 
8 2074 2075 2096 2095 2515 2516 2537 2536 
8 2075 2076 2097 2096 2516 2517 2538 2537 
8 2076 2077 2098 2097 2517 2518 2539 2538 
8 2077 2078 2099 2098 2518 2519 2540 2539 
8 2079 2080 2101 2100 2520 2521 2542 2541 
8 2080 2081 2102 2101 2521 2522 2543 2542 
8 2081 2082 2103 2102 2522 2523 2544 2543 
8 2082 2083 2104 2103 2523 2524 2545 2544 
8 2083 2084 2105 2104 2524 2525 2546 2545 
8 2084 2085 2106 2105 2525 2526 2547 2546 
8 2085 2086 2107 2106 2526 2527 2548 2547 
8 2086 2087 2108 2107 2527 2528 2549 2548 
8 2087 2088 2109 2108 2528 2529 2550 2549 
8 2088 2089 2110 2109 2529 2530 2551 2550 
8 2089 2090 2111 2110 2530 2531 2552 2551 
8 2090 2091 2112 2111 2531 2532 2553 2552 
8 2091 2092 2113 2112 2532 2533 2554 2553 
8 2092 2093 2114 2113 2533 2534 2555 2554 
8 2093 2094 2115 2114 2534 2535 2556 2555 
8 2094 2095 2116 2115 2535 2536 2557 2556 
8 2095 2096 2117 2116 2536 2537 2558 2557 
8 2096 2097 2118 2117 2537 2538 2559 2558 
8 2097 2098 2119 2118 2538 2539 2560 2559 
8 2098 2099 2120 2119 2539 2540 2561 2560 
8 2100 2101 2122 2121 2541 2542 2563 2562 
8 2101 2102 2123 2122 2542 2543 2564 2563 
8 2102 2103 2124 2123 2543 2544 2565 2564 
8 2103 2104 2125 2124 2544 2545 2566 2565 
8 2104 2105 2126 2125 2545 2546 2567 2566 
8 2105 2106 2127 2126 2546 2547 2568 2567 
8 2106 2107 2128 2127 2547 2548 2569 2568 
8 2107 2108 2129 2128 2548 2549 2570 2569 
8 2108 2109 2130 2129 2549 2550 2571 2570 
8 2109 2110 2131 2130 2550 2551 2572 2571 
8 2110 2111 2132 2131 2551 2552 2573 2572 
8 2111 2112 2133 2132 2552 2553 2574 2573 
8 2112 2113 2134 2133 2553 2554 2575 2574 
8 2113 2114 2135 2134 2554 2555 2576 2575 
8 2114 2115 2136 2135 2555 2556 2577 2576 
8 2115 2116 2137 2136 2556 2557 2578 2577 
8 2116 2117 2138 2137 2557 2558 2579 2578 
8 2117 2118 2139 2138 2558 2559 2580 2579 
8 2118 2119 2140 2139 2559 2560 2581 2580 
8 2119 2120 2141 2140 2560 2561 2582 2581 
8 2121 2122 2143 2142 2562 2563 2584 2583 
8 2122 2123 2144 2143 2563 2564 2585 2584 
8 2123 2124 2145 2144 2564 2565 2586 2585 
8 2124 2125 2146 2145 2565 2566 2587 2586 
8 2125 2126 2147 2146 2566 2567 2588 2587 
8 2126 2127 2148 2147 2567 2568 2589 2588 
8 2127 2128 2149 2148 2568 2569 2590 2589 
8 2128 2129 2150 2149 2569 2570 2591 2590 
8 2129 2130 2151 2150 2570 2571 2592 2591 
8 2130 2131 2152 2151 2571 2572 2593 2592 
8 2131 2132 2153 2152 2572 2573 2594 2593 
8 2132 2133 2154 2153 2573 2574 2595 2594 
8 2133 2134 2155 2154 2574 2575 2596 2595 
8 2134 2135 2156 2155 2575 2576 2597 2596 
8 2135 2136 2157 2156 2576 2577 2598 2597 
8 2136 2137 2158 2157 2577 2578 2599 2598 
8 2137 2138 2159 2158 2578 2579 2600 2599 
8 2138 2139 2160 2159 2579 2580 2601 2600 
8 2139 2140 2161 2160 2580 2581 2602 2601 
8 2140 2141 2162 2161 2581 2582 2603 2602 
8 2142 2143 2164 2163 2583 2584 2605 2604 
8 2143 2144 2165 2164 2584 2585 2606 2605 
8 2144 2145 2166 2165 2585 2586 2607 2606 
8 2145 2146 2167 2166 2586 2587 2608 2607 
8 2146 2147 2168 2167 2587 2588 2609 2608 
8 2147 2148 2169 2168 2588 2589 2610 2609 
8 2148 2149 2170 2169 2589 2590 2611 2610 
8 2149 2150 2171 2170 2590 2591 2612 2611 
8 2150 2151 2172 2171 2591 2592 2613 2612 
8 2151 2152 2173 2172 2592 2593 2614 2613 
8 2152 2153 2174 2173 2593 2594 2615 2614 
8 2153 2154 2175 2174 2594 2595 2616 2615 
8 2154 2155 2176 2175 2595 2596 2617 2616 
8 2155 2156 2177 2176 2596 2597 2618 2617 
8 2156 2157 2178 2177 2597 2598 2619 2618 
8 2157 2158 2179 2178 2598 2599 2620 2619 
8 2158 2159 2180 2179 2599 2600 2621 2620 
8 2159 2160 2181 2180 2600 2601 2622 2621 
8 2160 2161 2182 2181 2601 2602 2623 2622 
8 2161 2162 2183 2182 2602 2603 2624 2623 
8 2163 2164 2185 2184 2604 2605 2626 2625 
8 2164 2165 2186 2185 2605 2606 2627 2626 
8 2165 2166 2187 2186 2606 2607 2628 2627 
8 2166 2167 2188 2187 2607 2608 2629 2628 
8 2167 2168 2189 2188 2608 2609 2630 2629 
8 2168 2169 2190 2189 2609 2610 2631 2630 
8 2169 2170 2191 2190 2610 2611 2632 2631 
8 2170 2171 2192 2191 2611 2612 2633 2632 
8 2171 2172 2193 2192 2612 2613 2634 2633 
8 2172 2173 2194 2193 2613 2614 2635 2634 
8 2173 2174 2195 2194 2614 2615 2636 2635 
8 2174 2175 2196 2195 2615 2616 2637 2636 
8 2175 2176 2197 2196 2616 2617 2638 2637 
8 2176 2177 2198 2197 2617 2618 2639 2638 
8 2177 2178 2199 2198 2618 2619 2640 2639 
8 2178 2179 2200 2199 2619 2620 2641 2640 
8 2179 2180 2201 2200 2620 2621 2642 2641 
8 2180 2181 2202 2201 2621 2622 2643 2642 
8 2181 2182 2203 2202 2622 2623 2644 2643 
8 2182 2183 2204 2203 2623 2624 2645 2644 
CELL_TYPES 2000
12
12
12
12
12
12
12
12
12
12
12
12
12
12
12
12
12
12
12
12
12
12
12
12
12
12
12
12
12
12
12
12
12
12
12
12
12
12
12
12
12
12
12
12
12
12
12
12
12
12
12
12
12
12
12
12
12
12
12
12
12
12
12
12
12
12
12
12
12
12
12
12
12
12
12
12
12
12
12
12
12
12
12
12
12
12
12
12
12
12
12
12
12
12
12
12
12
12
12
12
12
12
12
12
12
12
12
12
12
12
12
12
12
12
12
12
12
12
12
12
12
12
12
12
12
12
12
12
12
12
12
12
12
12
12
12
12
12
12
12
12
12
12
12
12
12
12
12
12
12
12
12
12
12
12
12
12
12
12
12
12
12
12
12
12
12
12
12
12
12
12
12
12
12
12
12
12
12
12
12
12
12
12
12
12
12
12
12
12
12
12
12
12
12
12
12
12
12
12
12
12
12
12
12
12
12
12
12
12
12
12
12
12
12
12
12
12
12
12
12
12
12
12
12
12
12
12
12
12
12
12
12
12
12
12
12
12
12
12
12
12
12
12
12
12
12
12
12
12
12
12
12
12
12
12
12
12
12
12
12
12
12
12
12
12
12
12
12
12
12
12
12
12
12
12
12
12
12
12
12
12
12
12
12
12
12
12
12
12
12
12
12
12
12
12
12
12
12
12
12
12
12
12
12
12
12
12
12
12
12
12
12
12
12
12
12
12
12
12
12
12
12
12
12
12
12
12
12
12
12
12
12
12
12
12
12
12
12
12
12
12
12
12
12
12
12
12
12
12
12
12
12
12
12
12
12
12
12
12
12
12
12
12
12
12
12
12
12
12
12
12
12
12
12
12
12
12
12
12
12
12
12
12
12
12
12
12
12
12
12
12
12
12
12
12
12
12
12
12
12
12
12
12
12
12
12
12
12
12
12
12
12
12
12
12
12
12
12
12
12
12
12
12
12
12
12
12
12
12
12
12
12
12
12
12
12
12
12
12
12
12
12
12
12
12
12
12
12
12
12
12
12
12
12
12
12
12
12
12
12
12
12
12
12
12
12
12
12
12
12
12
12
12
12
12
12
12
12
12
12
12
12
12
12
12
12
12
12
12
12
12
12
12
12
12
12
12
12
12
12
12
12
12
12
12
12
12
12
12
12
12
12
12
12
12
12
12
12
12
12
12
12
12
12
12
12
12
12
12
12
12
12
12
12
12
12
12
12
12
12
12
12
12
12
12
12
12
12
12
12
12
12
12
12
12
12
12
12
12
12
12
12
12
12
12
12
12
12
12
12
12
12
12
12
12
12
12
12
12
12
12
12
12
12
12
12
12
12
12
12
12
12
12
12
12
12
12
12
12
12
12
12
12
12
12
12
12
12
12
12
12
12
12
12
12
12
12
12
12
12
12
12
12
12
12
12
12
12
12
12
12
12
12
12
12
12
12
12
12
12
12
12
12
12
12
12
12
12
12
12
12
12
12
12
12
12
12
12
12
12
12
12
12
12
12
12
12
12
12
12
12
12
12
12
12
12
12
12
12
12
12
12
12
12
12
12
12
12
12
12
12
12
12
12
12
12
12
12
12
12
12
12
12
12
12
12
12
12
12
12
12
12
12
12
12
12
12
12
12
12
12
12
12
12
12
12
12
12
12
12
12
12
12
12
12
12
12
12
12
12
12
12
12
12
12
12
12
12
12
12
12
12
12
12
12
12
12
12
12
12
12
12
12
12
12
12
12
12
12
12
12
12
12
12
12
12
12
12
12
12
12
12
12
12
12
12
12
12
12
12
12
12
12
12
12
12
12
12
12
12
12
12
12
12
12
12
12
12
12
12
12
12
12
12
12
12
12
12
12
12
12
12
12
12
12
12
12
12
12
12
12
12
12
12
12
12
12
12
12
12
12
12
12
12
12
12
12
12
12
12
12
12
12
12
12
12
12
12
12
12
12
12
12
12
12
12
12
12
12
12
12
12
12
12
12
12
12
12
12
12
12
12
12
12
12
12
12
12
12
12
12
12
12
12
12
12
12
12
12
12
12
12
12
12
12
12
12
12
12
12
12
12
12
12
12
12
12
12
12
12
12
12
12
12
12
12
12
12
12
12
12
12
12
12
12
12
12
12
12
12
12
12
12
12
12
12
12
12
12
12
12
12
12
12
12
12
12
12
12
12
12
12
12
12
12
12
12
12
12
12
12
12
12
12
12
12
12
12
12
12
12
12
12
12
12
12
12
12
12
12
12
12
12
12
12
12
12
12
12
12
12
12
12
12
12
12
12
12
12
12
12
12
12
12
12
12
12
12
12
12
12
12
12
12
12
12
12
12
12
12
12
12
12
12
12
12
12
12
12
12
12
12
12
12
12
12
12
12
12
12
12
12
12
12
12
12
12
12
12
12
12
12
12
12
12
12
12
12
12
12
12
12
12
12
12
12
12
12
12
12
12
12
12
12
12
12
12
12
12
12
12
12
12
12
12
12
12
12
12
12
12
12
12
12
12
12
12
12
12
12
12
12
12
12
12
12
12
12
12
12
12
12
12
12
12
12
12
12
12
12
12
12
12
12
12
12
12
12
12
12
12
12
12
12
12
12
12
12
12
12
12
12
12
12
12
12
12
12
12
12
12
12
12
12
12
12
12
12
12
12
12
12
12
12
12
12
12
12
12
12
12
12
12
12
12
12
12
12
12
12
12
12
12
12
12
12
12
12
12
12
12
12
12
12
12
12
12
12
12
12
12
12
12
12
12
12
12
12
12
12
12
12
12
12
12
12
12
12
12
12
12
12
12
12
12
12
12
12
12
12
12
12
12
12
12
12
12
12
12
12
12
12
12
12
12
12
12
12
12
12
12
12
12
12
12
12
12
12
12
12
12
12
12
12
12
12
12
12
12
12
12
12
12
12
12
12
12
12
12
12
12
12
12
12
12
12
12
12
12
12
12
12
12
12
12
12
12
12
12
12
12
12
12
12
12
12
12
12
12
12
12
12
12
12
12
12
12
12
12
12
12
12
12
12
12
12
12
12
12
12
12
12
12
12
12
12
12
12
12
12
12
12
12
12
12
12
12
12
12
12
12
12
12
12
12
12
12
12
12
12
12
12
12
12
12
12
12
12
12
12
12
12
12
12
12
12
12
12
12
12
12
12
12
12
12
12
12
12
12
12
12
12
12
12
12
12
12
12
12
12
12
12
12
12
12
12
12
12
12
12
12
12
12
12
12
12
12
12
12
12
12
12
12
12
12
12
12
12
12
12
12
12
12
12
12
12
12
12
12
12
12
12
12
12
12
12
12
12
12
12
12
12
12
12
12
12
12
12
12
12
12
12
12
12
12
12
12
12
12
12
12
12
12
12
12
12
12
12
12
12
12
12
12
12
12
12
12
12
12
12
12
12
12
12
12
12
12
12
12
12
12
12
12
12
12
12
12
12
12
12
12
12
12
12
12
12
12
12
12
12
12
12
12
12
12
12
12
12
12
12
12
12
12
12
12
12
12
12
12
12
12
12
12
12
12
12
12
12
12
12
12
12
12
12
12
12
12
12
12
12
12
12
12
12
12
12
12
12
12
12
12
12
12
12
12
12
12
12
12
12
12
12
12
12
12
12
12
12
12
12
12
12
12
12
12
12
12
12
12
12
12
12
12
12
12
12
12
12
12
12
12
12
12
12
12
12
12
12
12
12
12
12
12
12
12
12
12
12
12
12
12
12
12
12
12
12
12
12
12
12
12
12
12
12
12
12
12
12
12
12
12
12
12
12
12
12
12
12
12
12
12
12
12
12
12
12
12
12
12
12
12
12
12
12
12
12
12
12
12
12
12
12
12
12
12
12
12
12
12
12
12
12
12
12
12
12
12
12
12
12
12
12
12
12
12
12
12
12
12
12
12
12
12
12
12
12
12
12
12
12
12
12
12
12
12
12
12
12
12
12
12
12
12
12
12
12
12
12
12
12
12
12
12
12
12
12
12
12
12
12
12
12
12
12
12
12
12
12
12
12
12
12
12
12
12
12
12
12
12
12
12
12
12
12
12
12
12
12
12
12
12
12
12
12
12
12
12
12
12
12
12
12
12
12
12
12
12
12
12
12
12
12
12
12
12
12
12
12
12
12
12
12
12
12
12
12
12
12
12
12
12
12
12
12
12
12
12
12
12
12
12
12
12
12
12
12
12
12
12
12
12
12
12
12
12
12
12
12
12
12
12
12
12
12
12
12
12
12
12
12
12
12
12
12
12
12
12
12
12
12
12
12
12
12
12
12
12
12
12
12
12
12
12
12
12
12
12
12
12
12
12
12
12
12
12
12
12
12
12
12
12
12
12
12
12
12
12
12
12
12
12
12
12
12
12
12
12
12
12
12
12
12
12
12
12
12
12
12
12
12
12
12
12
12
12
12
12
12
12
12
12
12
12
12
12
12
12
12
12
12
12
12
12
12
12
12
12
12
12
12
12
12
12
12
12
12
12
12
12
12
12
12
12
12
12
12
12
12
12
12
12
12
12
12
12
12
12
12
12
12
CELL_DATA 2000
SCALARS Yield_Stress float 1
LOOKUP_TABLE default
0.00268106721342
0.00268106721342
0.00268106721342
0.00268106721342
0.00332673778757
0.00332673778757
0.00332673778757
0.0029125045985
0.0029125045985
0.00324406684376
0.00324406684376
0.00324406684376
0.00324406684376
0.00324406684376
0.00324406684376
0.00324406684376
0.00266699702479
0.00266699702479
0.00266699702479
0.00266699702479
0.00268106721342
0.00268106721342
0.00268106721342
0.00268106721342
0.00268106721342
0.00268106721342
0.00332673778757
0.0029125045985
0.0029125045985
0.0029125045985
0.00324406684376
0.00324406684376
0.00324406684376
0.00324406684376
0.00324406684376
0.00266699702479
0.00266699702479
0.00266699702479
0.00266699702479
0.00266699702479
0.00268106721342
0.00268106721342
0.00268106721342
0.00268106721342
0.00268106721342
0.00268106721342
0.00268106721342
0.0029125045985
0.0029125045985
0.0029125045985
0.0029125045985
0.00324406684376
0.00324406684376
0.00266699702479
0.00266699702479
0.00266699702479
0.00266699702479
0.00266699702479
0.00266699702479
0.00266699702479
0.00268106721342
0.00268106721342
0.00268106721342
0.00268106721342
0.00268106721342
0.00268106721342
0.00268106721342
0.0029125045985
0.0029125045985
0.0029125045985
0.0029125045985
0.00324406684376
0.00266699702479
0.00266699702479
0.00266699702479
0.00266699702479
0.00266699702479
0.00266699702479
0.00266699702479
0.00266699702479
0.00268106721342
0.00268106721342
0.00268106721342
0.00268106721342
0.00268106721342
0.00268106721342
0.00268106721342
0.0029125045985
0.0029125045985
0.0029125045985
0.0029125045985
0.00266699702479
0.00266699702479
0.00266699702479
0.00266699702479
0.00266699702479
0.00266699702479
0.00266699702479
0.00266699702479
0.00266699702479
0.00268106721342
0.00268106721342
0.00268106721342
0.00268106721342
0.00268106721342
0.00268106721342
0.00268106721342
0.00268106721342
0.0029125045985
0.00314338807948
0.00314338807948
0.00314338807948
0.00266699702479
0.00266699702479
0.00266699702479
0.00266699702479
0.00266699702479
0.00266699702479
0.00266699702479
0.00266699702479
0.00268106721342
0.00268106721342
0.00268106721342
0.00268106721342
0.00268106721342
0.00268106721342
0.00281185237691
0.00281185237691
0.00281185237691
0.00314338807948
0.00314338807948
0.00314338807948
0.00314338807948
0.00266699702479
0.00266699702479
0.00266699702479
0.00266699702479
0.00266699702479
0.00266699702479
0.00290954159573
0.00272031454369
0.00272031454369
0.00272031454369
0.00268106721342
0.00268106721342
0.00281185237691
0.00281185237691
0.00281185237691
0.00281185237691
0.00281185237691
0.00314338807948
0.00314338807948
0.00314338807948
0.00314338807948
0.00266699702479
0.00266699702479
0.00266699702479
0.00266699702479
0.00290954159573
0.00290954159573
0.00272031454369
0.00272031454369
0.00272031454369
0.00272031454369
0.00272031454369
0.00281185237691
0.00281185237691
0.00281185237691
0.00281185237691
0.00281185237691
0.00281185237691
0.00314338807948
0.00314338807948
0.00314338807948
0.00314338807948
0.00314338807948
0.00266699702479
0.00290954159573
0.00290954159573
0.00290954159573
0.00272031454369
0.00272031454369
0.00272031454369
0.00272031454369
0.00272031454369
0.00272031454369
0.00281185237691
0.00281185237691
0.00281185237691
0.00281185237691
0.00281185237691
0.00314338807948
0.00314338807948
0.00314338807948
0.00314338807948
0.00314338807948
0.00290954159573
0.00290954159573
0.00290954159573
0.00313043571077
0.00272031454369
0.00272031454369
0.00272031454369
0.00272031454369
0.00272031454369
0.00272031454369
0.00281185237691
0.00281185237691
0.00281185237691
0.00281185237691
0.00281185237691
0.00281185237691
0.00314338807948
0.00314338807948
0.00314338807948
0.00314338807948
0.00290954159573
0.00313043571077
0.00313043571077
0.00313043571077
0.00272031454369
0.00272031454369
0.00272031454369
0.00272031454369
0.00272031454369
0.00272031454369
0.00281185237691
0.00281185237691
0.00281185237691
0.00281185237691
0.00281185237691
0.00281185237691
0.00280184671283
0.00280184671283
0.00280184671283
0.00313043571077
0.00313043571077
0.00313043571077
0.00313043571077
0.00313043571077
0.00272031454369
0.00272031454369
0.00272031454369
0.00272031454369
0.00272031454369
0.00272031454369
0.00272031454369
0.00281185237691
0.00281185237691
0.00281185237691
0.00281185237691
0.00280184671283
0.00280184671283
0.00280184671283
0.00280184671283
0.00313043571077
0.00313043571077
0.00313043571077
0.00313043571077
0.00313043571077
0.00315691251308
0.00272031454369
0.00272031454369
0.00272031454369
0.00272031454369
0.00272031454369
0.00272031454369
0.00281185237691
0.00281185237691
0.00280184671283
0.00280184671283
0.00280184671283
0.00280184671283
0.00280184671283
0.00280184671283
0.00313043571077
0.00313043571077
0.00313043571077
0.00313043571077
0.00313043571077
0.00287892133929
0.00287892133929
0.00287892133929
0.00287892133929
0.00287892133929
0.00272031454369
0.00272031454369
0.00272031454369
0.00280184671283
0.00280184671283
0.00280184671283
0.00280184671283
0.00280184671283
0.00280184671283
0.00280184671283
0.00321780983359
0.00321780983359
0.00321780983359
0.00321780983359
0.00321780983359
0.00287892133929
0.00287892133929
0.00287892133929
0.00287892133929
0.00287892133929
0.00287892133929
0.00287892133929
0.00287892133929
0.00280184671283
0.00280184671283
0.00280184671283
0.00280184671283
0.0029125045985
0.0029125045985
0.0029125045985
0.0029125045985
0.00321780983359
0.00321780983359
0.00321780983359
0.00321780983359
0.00287892133929
0.00287892133929
0.00287892133929
0.00287892133929
0.00287892133929
0.00287892133929
0.00287892133929
0.00287892133929
0.00280184671283
0.0029125045985
0.0029125045985
0.0029125045985
0.0029125045985
0.0029125045985
0.0029125045985
0.0029125045985
0.0029125045985
0.00321780983359
0.00321780983359
0.00321780983359
0.00355098256841
0.00287892133929
0.00287892133929
0.00287892133929
0.00287892133929
0.00287892133929
0.00287892133929
0.00287892133929
0.0029125045985
0.0029125045985
0.0029125045985
0.0029125045985
0.0029125045985
0.0029125045985
0.0029125045985
0.0029125045985
0.0029125045985
0.0029125045985
0.00321780983359
0.00321780983359
0.00355098256841
0.00355098256841
0.00287892133929
0.00287892133929
0.00287892133929
0.00287892133929
0.00287892133929
0.00287892133929
0.0029125045985
0.0029125045985
0.0029125045985
0.0029125045985
0.0029125045985
0.0029125045985
0.0029125045985
0.0029125045985
0.0029125045985
0.0029125045985
0.0029125045985
0.00321780983359
0.00355098256841
0.00355098256841
0.00355098256841
0.00287892133929
0.00287892133929
0.00287892133929
0.00287892133929
0.00287892133929
0.0029125045985
0.0029125045985
0.0029125045985
0.0029125045985
0.0029125045985
0.0029125045985
0.0029125045985
0.0029125045985
0.0029125045985
0.0029125045985
0.0029125045985
0.0029125045985
0.00268106721342
0.00268106721342
0.00268106721342
0.00268106721342
0.00332673778757
0.00332673778757
0.00332673778757
0.00332673778757
0.0029125045985
0.0029125045985
0.00324406684376
0.00324406684376
0.00324406684376
0.00324406684376
0.00324406684376
0.00324406684376
0.00266699702479
0.00266699702479
0.00266699702479
0.00266699702479
0.00268106721342
0.00268106721342
0.00268106721342
0.00268106721342
0.00268106721342
0.00268106721342
0.00332673778757
0.0029125045985
0.0029125045985
0.0029125045985
0.0029125045985
0.00324406684376
0.00324406684376
0.00324406684376
0.00266699702479
0.00266699702479
0.00266699702479
0.00266699702479
0.00266699702479
0.00266699702479
0.00268106721342
0.00268106721342
0.00268106721342
0.00268106721342
0.00268106721342
0.00268106721342
0.00268106721342
0.0029125045985
0.0029125045985
0.0029125045985
0.0029125045985
0.0029125045985
0.00324406684376
0.00266699702479
0.00266699702479
0.00266699702479
0.00266699702479
0.00266699702479
0.00266699702479
0.00266699702479
0.00268106721342
0.00268106721342
0.00268106721342
0.00268106721342
0.00268106721342
0.00268106721342
0.00268106721342
0.0029125045985
0.0029125045985
0.0029125045985
0.0029125045985
0.0029125045985
0.00266699702479
0.00266699702479
0.00266699702479
0.00266699702479
0.00266699702479
0.00266699702479
0.00266699702479
0.00266699702479
0.00268106721342
0.00268106721342
0.00268106721342
0.00268106721342
0.00268106721342
0.00268106721342
0.00268106721342
0.00268106721342
0.0029125045985
0.0029125045985
0.0029125045985
0.00266699702479
0.00266699702479
0.00266699702479
0.00266699702479
0.00266699702479
0.00266699702479
0.00266699702479
0.00266699702479
0.00266699702479
0.00268106721342
0.00268106721342
0.00268106721342
0.00268106721342
0.00268106721342
0.00268106721342
0.00268106721342
0.00268106721342
0.0029125045985
0.00314338807948
0.00314338807948
0.00266699702479
0.00266699702479
0.00266699702479
0.00266699702479
0.00266699702479
0.00266699702479
0.00266699702479
0.00266699702479
0.00290954159573
0.00268106721342
0.00268106721342
0.00268106721342
0.00268106721342
0.00268106721342
0.00268106721342
0.00268106721342
0.00281185237691
0.00281185237691
0.00281185237691
0.00314338807948
0.00314338807948
0.00314338807948
0.00266699702479
0.00266699702479
0.00266699702479
0.00266699702479
0.00266699702479
0.00290954159573
0.00290954159573
0.00272031454369
0.00272031454369
0.00272031454369
0.00272031454369
0.00268106721342
0.00281185237691
0.00281185237691
0.00281185237691
0.00281185237691
0.00281185237691
0.00314338807948
0.00314338807948
0.00314338807948
0.00314338807948
0.00266699702479
0.00266699702479
0.00266699702479
0.00290954159573
0.00290954159573
0.00290954159573
0.00272031454369
0.00272031454369
0.00272031454369
0.00272031454369
0.00272031454369
0.00281185237691
0.00281185237691
0.00281185237691
0.00281185237691
0.00281185237691
0.00281185237691
0.00314338807948
0.00314338807948
0.00314338807948
0.00314338807948
0.00266699702479
0.00290954159573
0.00290954159573
0.00290954159573
0.00290954159573
0.00272031454369
0.00272031454369
0.00272031454369
0.00272031454369
0.00272031454369
0.00272031454369
0.00281185237691
0.00281185237691
0.00281185237691
0.00281185237691
0.00281185237691
0.00314338807948
0.00314338807948
0.00314338807948
0.00314338807948
0.00314338807948
0.00290954159573
0.00290954159573
0.00290954159573
0.00290954159573
0.00272031454369
0.00272031454369
0.00272031454369
0.00272031454369
0.00272031454369
0.00272031454369
0.00281185237691
0.00281185237691
0.00281185237691
0.00281185237691
0.00281185237691
0.00281185237691
0.00314338807948
0.00314338807948
0.00308354594745
0.00290954159573
0.00290954159573
0.00290954159573
0.00313043571077
0.00313043571077
0.00272031454369
0.00272031454369
0.00272031454369
0.00272031454369
0.00272031454369
0.00272031454369
0.00272031454369
0.00281185237691
0.00281185237691
0.00281185237691
0.00281185237691
0.00280184671283
0.00280184671283
0.00280184671283
0.00280184671283
0.00290954159573
0.00313043571077
0.00313043571077
0.00313043571077
0.00313043571077
0.00315691251308
0.00272031454369
0.00272031454369
0.00272031454369
0.00272031454369
0.00272031454369
0.00272031454369
0.00281185237691
0.00281185237691
0.00281185237691
0.00280184671283
0.00280184671283
0.00280184671283
0.00280184671283
0.00280184671283
0.00313043571077
0.00313043571077
0.00313043571077
0.00313043571077
0.00313043571077
0.00315691251308
0.00315691251308
0.00272031454369
0.00272031454369
0.00272031454369
0.00272031454369
0.00272031454369
0.00281185237691
0.00281185237691
0.00280184671283
0.00280184671283
0.00280184671283
0.00280184671283
0.00280184671283
0.00280184671283
0.00313043571077
0.00313043571077
0.00313043571077
0.00313043571077
0.00313043571077
0.00315691251308
0.00287892133929
0.00287892133929
0.00272031454369
0.00272031454369
0.00272031454369
0.00272031454369
0.00272031454369
0.00280184671283
0.00280184671283
0.00280184671283
0.00280184671283
0.00280184671283
0.00280184671283
0.00280184671283
0.00321780983359
0.00321780983359
0.00321780983359
0.00321780983359
0.00321780983359
0.00287892133929
0.00287892133929
0.00287892133929
0.00287892133929
0.00287892133929
0.00287892133929
0.00287892133929
0.00287892133929
0.00280184671283
0.00280184671283
0.00280184671283
0.00280184671283
0.00290954159573
0.00290954159573
0.00290954159573
0.0029125045985
0.00321780983359
0.00321780983359
0.00321780983359
0.00321780983359
0.00287892133929
0.00287892133929
0.00287892133929
0.00287892133929
0.00287892133929
0.00287892133929
0.00287892133929
0.00287892133929
0.00280184671283
0.00290954159573
0.00290954159573
0.00290954159573
0.00290954159573
0.0029125045985
0.0029125045985
0.0029125045985
0.0029125045985
0.00321780983359
0.00321780983359
0.00321780983359
0.00355098256841
0.00287892133929
0.00287892133929
0.00287892133929
0.00287892133929
0.00287892133929
0.00287892133929
0.00287892133929
0.00290954159573
0.00290954159573
0.0029125045985
0.0029125045985
0.0029125045985
0.0029125045985
0.0029125045985
0.0029125045985
0.0029125045985
0.0029125045985
0.00321780983359
0.00321780983359
0.00355098256841
0.00355098256841
0.00287892133929
0.00287892133929
0.00287892133929
0.00287892133929
0.00287892133929
0.00287892133929
0.0029125045985
0.0029125045985
0.0029125045985
0.0029125045985
0.0029125045985
0.0029125045985
0.0029125045985
0.0029125045985
0.0029125045985
0.0029125045985
0.00313043571077
0.00313043571077
0.00355098256841
0.00355098256841
0.00355098256841
0.00287892133929
0.00287892133929
0.00287892133929
0.00287892133929
0.00287892133929
0.0029125045985
0.0029125045985
0.0029125045985
0.0029125045985
0.0029125045985
0.0029125045985
0.0029125045985
0.0029125045985
0.0029125045985
0.0029125045985
0.0029125045985
0.00313043571077
0.00268106721342
0.00268106721342
0.00268106721342
0.00268106721342
0.00332673778757
0.00332673778757
0.00332673778757
0.00332673778757
0.0029125045985
0.0029125045985
0.0029125045985
0.00324406684376
0.00324406684376
0.00324406684376
0.00324406684376
0.00324406684376
0.00266699702479
0.00266699702479
0.00266699702479
0.00266699702479
0.00268106721342
0.00268106721342
0.00268106721342
0.00268106721342
0.00268106721342
0.00332673778757
0.00332673778757
0.00332673778757
0.0029125045985
0.0029125045985
0.0029125045985
0.0029125045985
0.00324406684376
0.00324406684376
0.00266699702479
0.00266699702479
0.00266699702479
0.00266699702479
0.00266699702479
0.00266699702479
0.00268106721342
0.00268106721342
0.00268106721342
0.00268106721342
0.00268106721342
0.00268106721342
0.00268106721342
0.0029125045985
0.0029125045985
0.0029125045985
0.0029125045985
0.0029125045985
0.00324406684376
0.00266699702479
0.00266699702479
0.00266699702479
0.00266699702479
0.00266699702479
0.00266699702479
0.00266699702479
0.00268106721342
0.00268106721342
0.00268106721342
0.00268106721342
0.00268106721342
0.00268106721342
0.00268106721342
0.0029125045985
0.0029125045985
0.0029125045985
0.0029125045985
0.0029125045985
0.00266699702479
0.00266699702479
0.00266699702479
0.00266699702479
0.00266699702479
0.00266699702479
0.00266699702479
0.00266699702479
0.00268106721342
0.00268106721342
0.00268106721342
0.00268106721342
0.00268106721342
0.00268106721342
0.00268106721342
0.00268106721342
0.0029125045985
0.0029125045985
0.0029125045985
0.00266699702479
0.00266699702479
0.00266699702479
0.00266699702479
0.00266699702479
0.00266699702479
0.00266699702479
0.00266699702479
0.00266699702479
0.00268106721342
0.00268106721342
0.00268106721342
0.00268106721342
0.00268106721342
0.00268106721342
0.00268106721342
0.00268106721342
0.0029125045985
0.00314338807948
0.00314338807948
0.00266699702479
0.00266699702479
0.00266699702479
0.00266699702479
0.00266699702479
0.00266699702479
0.00266699702479
0.00266699702479
0.00290954159573
0.00268106721342
0.00268106721342
0.00268106721342
0.00268106721342
0.00268106721342
0.00268106721342
0.00268106721342
0.00281185237691
0.00281185237691
0.00281185237691
0.00314338807948
0.00314338807948
0.00266699702479
0.00266699702479
0.00266699702479
0.00266699702479
0.00266699702479
0.00266699702479
0.00290954159573
0.00290954159573
0.00272031454369
0.00272031454369
0.00272031454369
0.00272031454369
0.00268106721342
0.00281185237691
0.00281185237691
0.00281185237691
0.00281185237691
0.00281185237691
0.00314338807948
0.00314338807948
0.00314338807948
0.00314338807948
0.00266699702479
0.00266699702479
0.00266699702479
0.00290954159573
0.00290954159573
0.00290954159573
0.00272031454369
0.00272031454369
0.00272031454369
0.00272031454369
0.00272031454369
0.00281185237691
0.00281185237691
0.00281185237691
0.00281185237691
0.00281185237691
0.00281185237691
0.00308354594745
0.00308354594745
0.00308354594745
0.00308354594745
0.00266699702479
0.00290954159573
0.00290954159573
0.00290954159573
0.00290954159573
0.00272031454369
0.00272031454369
0.00272031454369
0.00272031454369
0.00272031454369
0.00272031454369
0.00281185237691
0.00281185237691
0.00281185237691
0.00281185237691
0.00281185237691
0.00308354594745
0.00308354594745
0.00308354594745
0.00308354594745
0.00290954159573
0.00290954159573
0.00290954159573
0.00290954159573
0.00290954159573
0.00272031454369
0.00272031454369
0.00272031454369
0.00272031454369
0.00272031454369
0.00272031454369
0.00281185237691
0.00281185237691
0.00281185237691
0.00281185237691
0.00281185237691
0.00308354594745
0.00308354594745
0.00308354594745
0.00308354594745
0.00290954159573
0.00290954159573
0.00290954159573
0.00290954159573
0.00313043571077
0.00272031454369
0.00272031454369
0.00272031454369
0.00272031454369
0.00272031454369
0.00272031454369
0.00272031454369
0.00281185237691
0.00281185237691
0.00281185237691
0.00280184671283
0.00280184671283
0.00280184671283
0.00280184671283
0.00280184671283
0.00290954159573
0.00290954159573
0.00313043571077
0.00313043571077
0.00313043571077
0.00315691251308
0.00315691251308
0.00272031454369
0.00272031454369
0.00272031454369
0.00272031454369
0.00272031454369
0.00281185237691
0.00281185237691
0.00280184671283
0.00280184671283
0.00280184671283
0.00280184671283
0.00280184671283
0.00280184671283
0.00280184671283
0.00313043571077
0.00313043571077
0.00313043571077
0.00313043571077
0.00315691251308
0.00315691251308
0.00315691251308
0.00272031454369
0.00272031454369
0.00272031454369
0.00272031454369
0.00281185237691
0.00280184671283
0.00280184671283
0.00280184671283
0.00280184671283
0.00280184671283
0.00280184671283
0.00280184671283
0.00313043571077
0.00313043571077
0.00313043571077
0.00313043571077
0.00321780983359
0.00315691251308
0.00315691251308
0.00315691251308
0.00315691251308
0.00272031454369
0.00272031454369
0.00272031454369
0.00272031454369
0.00280184671283
0.00280184671283
0.00280184671283
0.00280184671283
0.00280184671283
0.00280184671283
0.00280184671283
0.00321780983359
0.00321780983359
0.00321780983359
0.00321780983359
0.00321780983359
0.00315007590689
0.00287892133929
0.00287892133929
0.00287892133929
0.00287892133929
0.00287892133929
0.00287892133929
0.00280184671283
0.00280184671283
0.00280184671283
0.00280184671283
0.00280184671283
0.00290954159573
0.00290954159573
0.00290954159573
0.00290954159573
0.00313043571077
0.00321780983359
0.00321780983359
0.00321780983359
0.00315007590689
0.00315007590689
0.00287892133929
0.00287892133929
0.00287892133929
0.00287892133929
0.00287892133929
0.00287892133929
0.00280184671283
0.00290954159573
0.00290954159573
0.00290954159573
0.00290954159573
0.00290954159573
0.00290954159573
0.00290954159573
0.00313043571077
0.00313043571077
0.00313043571077
0.00313043571077
0.00315007590689
0.00315007590689
0.00287892133929
0.00287892133929
0.00287892133929
0.00287892133929
0.00287892133929
0.00287892133929
0.00290954159573
0.00290954159573
0.00290954159573
0.00290954159573
0.00290954159573
0.00290954159573
0.0029125045985
0.0029125045985
0.0029125045985
0.00313043571077
0.00313043571077
0.00313043571077
0.00355098256841
0.00355098256841
0.00287892133929
0.00287892133929
0.00287892133929
0.00287892133929
0.00287892133929
0.00287892133929
0.00290954159573
0.00290954159573
0.00290954159573
0.0029125045985
0.0029125045985
0.0029125045985
0.0029125045985
0.0029125045985
0.0029125045985
0.0029125045985
0.00313043571077
0.00313043571077
0.00355098256841
0.00355098256841
0.00355098256841
0.00287892133929
0.00287892133929
0.00287892133929
0.00287892133929
0.00287892133929
0.00290954159573
0.0029125045985
0.0029125045985
0.0029125045985
0.0029125045985
0.0029125045985
0.0029125045985
0.0029125045985
0.0029125045985
0.0029125045985
0.0029125045985
0.00313043571077
0.00268106721342
0.00268106721342
0.00268106721342
0.00268106721342
0.00332673778757
0.00332673778757
0.00332673778757
0.00332673778757
0.0029125045985
0.0029125045985
0.0029125045985
0.0029125045985
0.00324406684376
0.00324406684376
0.00324406684376
0.00266699702479
0.00266699702479
0.00266699702479
0.00266699702479
0.00266699702479
0.00268106721342
0.00268106721342
0.00268106721342
0.00268106721342
0.00268106721342
0.00332673778757
0.00332673778757
0.00332673778757
0.0029125045985
0.0029125045985
0.0029125045985
0.0029125045985
0.00324406684376
0.00324406684376
0.00266699702479
0.00266699702479
0.00266699702479
0.00266699702479
0.00266699702479
0.00266699702479
0.00268106721342
0.00268106721342
0.00268106721342
0.00268106721342
0.00268106721342
0.00268106721342
0.00268106721342
0.0029125045985
0.0029125045985
0.0029125045985
0.0029125045985
0.0029125045985
0.0029125045985
0.00266699702479
0.00266699702479
0.00266699702479
0.00266699702479
0.00266699702479
0.00266699702479
0.00266699702479
0.00268106721342
0.00268106721342
0.00268106721342
0.00268106721342
0.00268106721342
0.00268106721342
0.00268106721342
0.0029125045985
0.0029125045985
0.0029125045985
0.0029125045985
0.0029125045985
0.00266699702479
0.00266699702479
0.00266699702479
0.00266699702479
0.00266699702479
0.00266699702479
0.00266699702479
0.00266699702479
0.00268106721342
0.00268106721342
0.00268106721342
0.00268106721342
0.00268106721342
0.00268106721342
0.00268106721342
0.00268106721342
0.0029125045985
0.0029125045985
0.0029125045985
0.00266699702479
0.00266699702479
0.00266699702479
0.00266699702479
0.00266699702479
0.00266699702479
0.00266699702479
0.00266699702479
0.00290954159573
0.00268106721342
0.00268106721342
0.00268106721342
0.00268106721342
0.00268106721342
0.00268106721342
0.00268106721342
0.00268106721342
0.0029125045985
0.0029125045985
0.00314338807948
0.00266699702479
0.00266699702479
0.00266699702479
0.00266699702479
0.00266699702479
0.00266699702479
0.00266699702479
0.00290954159573
0.00290954159573
0.00268106721342
0.00268106721342
0.00268106721342
0.00268106721342
0.00268106721342
0.00268106721342
0.00268106721342
0.00281185237691
0.00281185237691
0.00281185237691
0.00308354594745
0.00308354594745
0.00308354594745
0.00266699702479
0.00266699702479
0.00266699702479
0.00266699702479
0.00290954159573
0.00290954159573
0.00290954159573
0.00272031454369
0.00272031454369
0.00272031454369
0.00272031454369
0.00272031454369
0.00281185237691
0.00281185237691
0.00281185237691
0.00281185237691
0.00281185237691
0.00308354594745
0.00308354594745
0.00308354594745
0.00308354594745
0.00308354594745
0.00266699702479
0.00290954159573
0.00290954159573
0.00290954159573
0.00290954159573
0.00272031454369
0.00272031454369
0.00272031454369
0.00272031454369
0.00272031454369
0.00272031454369
0.00281185237691
0.00281185237691
0.00281185237691
0.00281185237691
0.00308354594745
0.00308354594745
0.00308354594745
0.00308354594745
0.00308354594745
0.00290954159573
0.00290954159573
0.00290954159573
0.00290954159573
0.00290954159573
0.00272031454369
0.00272031454369
0.00272031454369
0.00272031454369
0.00272031454369
0.00272031454369
0.00281185237691
0.00281185237691
0.00281185237691
0.00281185237691
0.00281185237691
0.00308354594745
0.00308354594745
0.00308354594745
0.00308354594745
0.00290954159573
0.00290954159573
0.00290954159573
0.00290954159573
0.00290954159573
0.00272031454369
0.00272031454369
0.00272031454369
0.00272031454369
0.00272031454369
0.00272031454369
0.00281185237691
0.00281185237691
0.00281185237691
0.00281185237691
0.00281185237691
0.00308354594745
0.00308354594745
0.00308354594745
0.00308354594745
0.00290954159573
0.00290954159573
0.00290954159573
0.00290954159573
0.00290954159573
0.00315691251308
0.00272031454369
0.00272031454369
0.00272031454369
0.00272031454369
0.00272031454369
0.00272031454369
0.00281185237691
0.00281185237691
0.00281185237691
0.00280184671283
0.00280184671283
0.00280184671283
0.00280184671283
0.00280184671283
0.00290954159573
0.00290954159573
0.00290954159573
0.00313043571077
0.00313043571077
0.00315691251308
0.00315691251308
0.00315691251308
0.00272031454369
0.00272031454369
0.00272031454369
0.00272031454369
0.00281185237691
0.00281185237691
0.00280184671283
0.00280184671283
0.00280184671283
0.00280184671283
0.00280184671283
0.00280184671283
0.00280184671283
0.00313043571077
0.00313043571077
0.00313043571077
0.00313043571077
0.00315691251308
0.00315691251308
0.00315691251308
0.00315691251308
0.00272031454369
0.00272031454369
0.00272031454369
0.00272031454369
0.00280184671283
0.00280184671283
0.00280184671283
0.00280184671283
0.00280184671283
0.00280184671283
0.00280184671283
0.00280184671283
0.00321780983359
0.00321780983359
0.00321780983359
0.00321780983359
0.00315691251308
0.00315691251308
0.00315691251308
0.00315691251308
0.00315691251308
0.00272031454369
0.00272031454369
0.00280184671283
0.00280184671283
0.00280184671283
0.00280184671283
0.00280184671283
0.00280184671283
0.00280184671283
0.00280184671283
0.00290954159573
0.00313043571077
0.00313043571077
0.00321780983359
0.00321780983359
0.00315007590689
0.00315007590689
0.00315691251308
0.00315691251308
0.00315691251308
0.00315691251308
0.00272031454369
0.00280184671283
0.00280184671283
0.00280184671283
0.00280184671283
0.00280184671283
0.00290954159573
0.00290954159573
0.00290954159573
0.00290954159573
0.00313043571077
0.00313043571077
0.00313043571077
0.00313043571077
0.00315007590689
0.00315007590689
0.00315007590689
0.00315007590689
0.00287892133929
0.00287892133929
0.00287892133929
0.00287892133929
0.00280184671283
0.00290954159573
0.00290954159573
0.00290954159573
0.00290954159573
0.00290954159573
0.00290954159573
0.00290954159573
0.00313043571077
0.00313043571077
0.00313043571077
0.00313043571077
0.00315007590689
0.00315007590689
0.00315007590689
0.00315007590689
0.00287892133929
0.00287892133929
0.00287892133929
0.00287892133929
0.00290954159573
0.00290954159573
0.00290954159573
0.00290954159573
0.00290954159573
0.00290954159573
0.00290954159573
0.00290954159573
0.00290954159573
0.00313043571077
0.00313043571077
0.00313043571077
0.00315007590689
0.00315007590689
0.00315007590689
0.00315007590689
0.00315007590689
0.00287892133929
0.00287892133929
0.00287892133929
0.00290954159573
0.00290954159573
0.00290954159573
0.00290954159573
0.00290954159573
0.00290954159573
0.00290954159573
0.0029125045985
0.0029125045985
0.00313043571077
0.00313043571077
0.00313043571077
0.00355098256841
0.00355098256841
0.00315007590689
0.00315007590689
0.00315007590689
0.00287892133929
0.00287892133929
0.00287892133929
0.00290954159573
0.00290954159573
0.00290954159573
0.00290954159573
0.00290954159573
0.0029125045985
0.0029125045985
0.0029125045985
0.0029125045985
0.0029125045985
0.00313043571077
0.00313043571077
0.00268106721342
0.00268106721342
0.00268106721342
0.00332673778757
0.00332673778757
0.00332673778757
0.00332673778757
0.00332673778757
0.0029125045985
0.0029125045985
0.0029125045985
0.0029125045985
0.0029125045985
0.00324406684376
0.00324406684376
0.00266699702479
0.00266699702479
0.00266699702479
0.00266699702479
0.00266699702479
0.00268106721342
0.00268106721342
0.00268106721342
0.00268106721342
0.00268106721342
0.00332673778757
0.00332673778757
0.00332673778757
0.0029125045985
0.0029125045985
0.0029125045985
0.0029125045985
0.0029125045985
0.00324406684376
0.00266699702479
0.00266699702479
0.00266699702479
0.00266699702479
0.00266699702479
0.00266699702479
0.00268106721342
0.00268106721342
0.00268106721342
0.00268106721342
0.00268106721342
0.00268106721342
0.00332673778757
0.00332673778757
0.0029125045985
0.0029125045985
0.0029125045985
0.0029125045985
0.0029125045985
0.00266699702479
0.00266699702479
0.00266699702479
0.00266699702479
0.00266699702479
0.00266699702479
0.00266699702479
0.00268106721342
0.00268106721342
0.00268106721342
0.00268106721342
0.00268106721342
0.00268106721342
0.00268106721342
0.0029125045985
0.0029125045985
0.0029125045985
0.0029125045985
0.0029125045985
0.00266699702479
0.00266699702479
0.00266699702479
0.00266699702479
0.00266699702479
0.00266699702479
0.00266699702479
0.00266699702479
0.00268106721342
0.00268106721342
0.00268106721342
0.00268106721342
0.00268106721342
0.00268106721342
0.00268106721342
0.00268106721342
0.0029125045985
0.0029125045985
0.0029125045985
0.00266699702479
0.00266699702479
0.00266699702479
0.00266699702479
0.00266699702479
0.00266699702479
0.00266699702479
0.00266699702479
0.00290954159573
0.00268106721342
0.00268106721342
0.00268106721342
0.00268106721342
0.00268106721342
0.00268106721342
0.00268106721342
0.00268106721342
0.0029125045985
0.00308354594745
0.00308354594745
0.00308354594745
0.00266699702479
0.00266699702479
0.00266699702479
0.00266699702479
0.00266699702479
0.00266699702479
0.00290954159573
0.00290954159573
0.00268106721342
0.00268106721342
0.00268106721342
0.00268106721342
0.00268106721342
0.00268106721342
0.00268106721342
0.00281185237691
0.00281185237691
0.00308354594745
0.00308354594745
0.00308354594745
0.00308354594745
0.00308354594745
0.00266699702479
0.00266699702479
0.00266699702479
0.00290954159573
0.00290954159573
0.00290954159573
0.00272031454369
0.00272031454369
0.00272031454369
0.00272031454369
0.00272031454369
0.00281185237691
0.00281185237691
0.00281185237691
0.00281185237691
0.00308354594745
0.00308354594745
0.00308354594745
0.00308354594745
0.00308354594745
0.00308354594745
0.00308354594745
0.00290954159573
0.00290954159573
0.00290954159573
0.00290954159573
0.00272031454369
0.00272031454369
0.00272031454369
0.00272031454369
0.00272031454369
0.00272031454369
0.00281185237691
0.00281185237691
0.00281185237691
0.00281185237691
0.00308354594745
0.00308354594745
0.00308354594745
0.00308354594745
0.00308354594745
0.00290954159573
0.00290954159573
0.00290954159573
0.00290954159573
0.00290954159573
0.00272031454369
0.00272031454369
0.00272031454369
0.00272031454369
0.00272031454369
0.00272031454369
0.00281185237691
0.00281185237691
0.00281185237691
0.00281185237691
0.00308354594745
0.00308354594745
0.00308354594745
0.00308354594745
0.00308354594745
0.00290954159573
0.00290954159573
0.00290954159573
0.00290954159573
0.00290954159573
0.00315691251308
0.00272031454369
0.00272031454369
0.00272031454369
0.00272031454369
0.00272031454369
0.00272031454369
0.00281185237691
0.00281185237691
0.00281185237691
0.00308354594745
0.00308354594745
0.00308354594745
0.00308354594745
0.00308354594745
0.00290954159573
0.00290954159573
0.00290954159573
0.00290954159573
0.00290954159573
0.00315691251308
0.00315691251308
0.00272031454369
0.00272031454369
0.00272031454369
0.00272031454369
0.00272031454369
0.00281185237691
0.00281185237691
0.00280184671283
0.00280184671283
0.00280184671283
0.00280184671283
0.00280184671283
0.00280184671283
0.00290954159573
0.00290954159573
0.00290954159573
0.00290954159573
0.00290954159573
0.00315691251308
0.00315691251308
0.00315691251308
0.00272031454369
0.00272031454369
0.00272031454369
0.00272031454369
0.00281185237691
0.00280184671283
0.00280184671283
0.00280184671283
0.00280184671283
0.00280184671283
0.00280184671283
0.00280184671283
0.00280184671283
0.00290954159573
0.00313043571077
0.00313043571077
0.00313043571077
0.00315691251308
0.00315691251308
0.00315691251308
0.00315691251308
0.00315691251308
0.00272031454369
0.00272031454369
0.00280184671283
0.00280184671283
0.00280184671283
0.00280184671283
0.00280184671283
0.00280184671283
0.00280184671283
0.00280184671283
0.00280184671283
0.00313043571077
0.00313043571077
0.00313043571077
0.00313043571077
0.00315691251308
0.00315691251308
0.00315691251308
0.00315691251308
0.00315691251308
0.00315691251308
0.00272031454369
0.00280184671283
0.00280184671283
0.00280184671283
0.00280184671283
0.00280184671283
0.00280184671283
0.00280184671283
0.00290954159573
0.00290954159573
0.00313043571077
0.00313043571077
0.00313043571077
0.00313043571077
0.00315007590689
0.00315007590689
0.00315007590689
0.00315691251308
0.00315691251308
0.00315691251308
0.00315691251308
0.00280184671283
0.00280184671283
0.00280184671283
0.00280184671283
0.00290954159573
0.00290954159573
0.00290954159573
0.00290954159573
0.00290954159573
0.00313043571077
0.00313043571077
0.00313043571077
0.00313043571077
0.00315007590689
0.00315007590689
0.00315007590689
0.00315007590689
0.00315007590689
0.00315007590689
0.00287892133929
0.00280184671283
0.00290954159573
0.00290954159573
0.00290954159573
0.00290954159573
0.00290954159573
0.00290954159573
0.00290954159573
0.00290954159573
0.00313043571077
0.00313043571077
0.00313043571077
0.00313043571077
0.00315007590689
0.00315007590689
0.00315007590689
0.00315007590689
0.00315007590689
0.00315007590689
0.00315007590689
0.00290954159573
0.00290954159573
0.00290954159573
0.00290954159573
0.00290954159573
0.00290954159573
0.00290954159573
0.00290954159573
0.00290954159573
0.00290954159573
0.00313043571077
0.00313043571077
0.00313043571077
0.00315007590689
0.00315007590689
0.00315007590689
0.00315007590689
0.00315007590689
0.00315007590689
0.00315007590689
0.00290954159573
0.00290954159573
0.00290954159573
0.00290954159573
0.00290954159573
0.00290954159573
0.00290954159573
0.00290954159573
0.00290954159573
0.00290954159573
0.00313043571077
0.00313043571077
0.00313043571077
0.00315007590689
0.00315007590689
0.00315007590689
0.00315007590689
0.00315007590689
0.00315007590689
0.00315007590689
0.00290954159573
0.00290954159573
0.00290954159573
0.00290954159573
0.00290954159573
0.00290954159573
0.00290954159573
0.00290954159573
0.00290954159573
0.00290954159573
0.0029125045985
0.00313043571077
0.00313043571077
POINT_DATA 2646
SCALARS Von_Mises_Stress float 1
LOOKUP_TABLE default
0.00284259160981
0.00291082798503
0.0029695504345
0.00306116673164
0.00347349140793
0.00386525481008
0.00361215230078
0.00338654802181
0.00333954812959
0.00370423588902
0.0040888027288
0.00432099448517
0.00452225841582
0.00470676878467
0.00484555913135
0.00490340217948
0.00474937353283
0.00467307586223
0.00477804755792
0.00474558398128
0.00470411591232
0.00266950577497
0.0026331814006
0.0026937853545
0.00274027464911
0.00286759762093
0.00306656886823
0.00334598426707
0.00335773336701
0.00343016092665
0.00376577861607
0.00408346066251
0.00425593042746
0.00430102925748
0.00431925989687
0.00435438472778
0.0043029054068
0.00408533308655
0.0039543970488
0.00395608367398
0.00396158127114
0.00396424671635
0.00274522206746
0.0027302892413
0.00273806741461
0.00282165245153
0.00294540682808
0.00307053118013
0.00338690588251
0.00372418551706
0.00382213923149
0.00387400435284
0.00394737068564
0.00404771976173
0.00403151428327
0.00382922985591
0.00364079512656
0.0034727982711
0.00321310106665
0.00247955741361
0.00154460617341
0.00129937054589
0.000814421277028
0.00280478131026
0.00287962215953
0.0029216746334
0.00298864464276
0.00320714781992
0.0034461019095
0.00361624103971
0.00383238377981
0.00393262179568
0.00385992089286
0.00377914262936
0.00380566925742
0.00374948349781
0.00348953949288
0.00332592008635
0.00308475876227
0.00273027922958
0.00291004707105
0.00265730917454
0.00180573563557
0.00154729164205
0.00306634581648
0.00311599648558
0.0032977599185
0.00349150388502
0.00364168873057
0.00375541392714
0.00377678964287
0.00378886517137
0.00382236670703
0.00374794355594
0.00363611523062
0.00361113762483
0.00346058164723
0.00315856398083
0.00285796076059
0.00286537245847
0.00296744843945
0.00270474189892
0.00211677956395
0.0016079825582
0.0012447477784
0.00329131656326
0.00348032987677
0.00366918393411
0.00378463999368
0.00380255281925
0.00374045642093
0.00368216750212
0.0036611163523
0.0035927395802
0.00351207167841
0.00348874530755
0.00341803696938
0.0031403452158
0.00294462079182
0.00298627256416
0.00287026003934
0.00281242048368
0.00262076081708
0.00216423184611
0.00183499755803
0.00178253301419
0.00378132471815
0.00382927269675
0.00382198719308
0.00377267180011
0.00370144215412
0.00357607449405
0.0033887247555
0.0031581891235
0.00316499918699
0.00336373480968
0.00340893305838
0.0032497823704
0.00302335130982
0.00285392068326
0.00278467382304
0.00278311432339
0.00262065185234
0.00231621367857
0.00209664623253
0.00198354176246
0.00198498717509
0.00310374540277
0.00298230652697
0.00280795851722
0.00255697476678
0.00233525899239
0.0023547578603
0.00267286878079
0.00291605270468
0.00282407877967
0.00292270304635
0.00304388976656
0.00305314152502
0.00298411725089
0.00279741804115
0.00260857795365
0.0024613365531
0.00230210646987
0.00218596798368
0.00213518249802
0.00216598669067
0.00221502338536
0.00191860529594
0.00206834403798
0.0022142669186
0.00236960803159
0.002414527582
0.00243038777262
0.00244264537469
0.00252999551594
0.00255707721226
0.0025204711128
0.00265995110385
0.00284236809239
0.00291198119521
0.00285991700366
0.00257470831275
0.00224565761164
0.00216837530024
0.00214202003554
0.00220036995597
0.00225142366253
0.00231350911781
0.00205730041489
0.00222090119496
0.00228438875638
0.00225713499822
0.00221590185538
0.00224121590145
0.00227891677059
0.00228362157941
0.00231330911629
0.00235477858223
0.00240847701207
0.00265348795801
0.00284027867019
0.00278453435749
0.00252904416993
0.00224077189341
0.00217032781802
0.00215633935295
0.00227504782379
0.0023840686772
0.00251864967868
0.00198562978767
0.00214881356806
0.00222615920939
0.00223326776177
0.00217667524703
0.0021212301217
0.00213187863119
0.00217194948345
0.00218703155406
0.00224281242117
0.002290047938
0.00243896851316
0.00259944517165
0.00254228385165
0.00228810589761
0.0020213208627
0.00203365832567
0.0023638329003
0.00242938916199
0.00251333415508
0.00264294794761
0.00213167630136
0.00216180807911
0.00216283951886
0.00212809373625
0.00205664662644
0.0020070867613
0.00202887761407
0.00208297930658
0.00211001676507
0.00213978951797
0.00218266947195
0.00216167955659
0.00215245666914
0.00217002793215
0.00202418258414
0.00189456238877
0.00200784602202
0.00229624891654
0.00254222867079
0.00258547440171
0.00266465824097
0.00212347134948
0.00212214351632
0.0020859381184
0.00203787093051
0.00196700938977
0.00191999913659
0.00191716023255
0.00196902942844
0.00201198621653
0.0020208072383
0.00198217760772
0.00189575052354
0.00183247518726
0.00184975052252
0.00190602103248
0.00198314967565
0.00203668745235
0.002222773619
0.00247317878529
0.00261089322157
0.00266105541959
0.00226888526231
0.00211911741644
0.00199467712082
0.00197078194469
0.00188858737238
0.00183361873496
0.00180278951302
0.00183936813846
0.0018724007532
0.00183276296593
0.00176751241088
0.00171772367321
0.00173294940032
0.00179458339699
0.00187952746637
0.00203535961919
0.00209815008566
0.00221101683564
0.00240219151601
0.00259388308041
0.00265976646915
0.0021947294008
0.00206224876456
0.00189394981135
0.00188416661695
0.00184115709271
0.00174295727629
0.00166236399673
0.00165436440147
0.00166134280153
0.00164733978454
0.00162890879437
0.001642776886
0.00169051415287
0.0017708389787
0.00186769792344
0.00206146924756
0.00215304573067
0.00225126068108
0.00239487574436
0.00256021879613
0.00267762015574
0.00208117580041
0.00199544779025
0.00183064595331
0.00172133441083
0.00166153186001
0.00158781860955
0.00152829661965
0.00151424854994
0.00152221415192
0.00154026225209
0.0015635752352
0.00160489266273
0.00170645315666
0.00182516884524
0.00192235363647
0.00207564141601
0.00219651428051
0.00228629540652
0.00240979599766
0.00255858525634
0.00269681937061
0.00210152450018
0.00201874133199
0.00192129530478
0.00173909822479
0.00141030841041
0.00137668265961
0.00142068392597
0.0014633780811
0.00147617293987
0.00149248191155
0.00155127374455
0.00160640245304
0.00171246833634
0.0018178827595
0.00195953203365
0.00208233506419
0.00220228079706
0.00229748641141
0.00241713738069
0.00257402542047
0.0027164183557
0.00228554825298
0.00209564599209
0.00186577404384
0.00174866791349
0.00124072970357
0.00110136449803
0.00114056048915
0.00122982321773
0.00130902673118
0.00138730439357
0.00147138047032
0.00155568949413
0.00166745926253
0.00179338955786
0.00193196826149
0.00208477722481
0.00219678017311
0.00230053137057
0.0024035202805
0.00256904866546
0.00277389865369
0.00233485316858
0.00206471490674
0.00171509641223
0.00159628340043
0.00125837849919
0.00105799012817
0.00103075359948
0.00108983926475
0.00117919687182
0.00127898936626
0.00138500344474
0.00149792223237
0.00161986949388
0.00175408436917
0.00190303102136
0.00206852192059
0.00219311774708
0.00228064903058
0.00239190529101
0.00255335820839
0.0027449990157
0.00229420396499
0.0019105556421
0.00156551785767
0.00143489229959
0.00125450489577
0.00109143427107
0.00102341268212
0.00104165938683
0.00111403886694
0.00121539004613
0.00133177242242
0.00145696697291
0.00158995925449
0.00173174170777
0.00188351760153
0.00205182214268
0.00218053837307
0.002278333297
0.00234338478185
0.00247173919342
0.00259344303049
0.00209710351191
0.00186571478844
0.00157229951583
0.00138005975168
0.00123681686819
0.00110382912681
0.0010280853603
0.0010311100632
0.00109554489609
0.00119642156642
0.0013155748602
0.00144450075459
0.00158056418877
0.00172413035762
0.00187748495955
0.0020460083615
0.00217503891326
0.00228000059724
0.00234671472572
0.00239844503812
0.00243889493868
0.00287478719838
0.00269912532531
0.00277417479083
0.00273124361411
0.00308907940052
0.00346818729304
0.00344714336097
0.00345053873025
0.00340585759841
0.00360696925782
0.00399213423952
0.00430169701576
0.00451027881354
0.0046886340715
0.00481790443882
0.00490968022496
0.00478218821809
0.00468702334911
0.00478308461607
0.00477015739307
0.00474438630044
0.00268248887733
0.00255840760656
0.00255322433077
0.00254809809849
0.00270578986965
0.00283941277303
0.00322568230331
0.00338845513761
0.00344646559097
0.00367526267655
0.00397170288488
0.00420130509883
0.00429051136598
0.00431481702253
0.00428871437907
0.00420376332477
0.00401096697897
0.00388590781949
0.00386271462776
0.00386433815584
0.00386887718923
0.00270927720703
0.00248609133996
0.00248415162787
0.00254901731387
0.00274296128191
0.00295302714221
0.00327720842324
0.00359360780567
0.0037149626296
0.00383031461388
0.00389916426502
0.00396812707186
0.0039877248928
0.00381288817152
0.00351322395727
0.00328033580445
0.0030142411124
0.00235520768911
0.00177463446744
0.00124410702847
0.000896426150575
0.00268109887838
0.00271796644665
0.00274445535615
0.00290051358752
0.00312315695919
0.00330827478319
0.00348583958112
0.00376801122911
0.00393499759957
0.00386801129207
0.00375590636395
0.00369162042625
0.00361732160673
0.00336796883494
0.00310030207038
0.00278363376856
0.00242520682514
0.00250430172309
0.00205032108352
0.00170388491824
0.0016758487327
0.00299036432989
0.00301497918554
0.00318120140582
0.0033580744639
0.00352765899152
0.00370704359375
0.00378658925183
0.0037755148951
0.00375765934587
0.00366231356747
0.00350716081448
0.00337566109374
0.00314139574766
0.00286459596828
0.00269487244077
0.00268664164469
0.00267964717932
0.00235456228256
0.00199219421484
0.00168621551711
0.00143010250758
0.00324139790609
0.0034417223651
0.00364719820209
0.00379262189381
0.00382089847699
0.00372682022862
0.00361690949649
0.00353649794124
0.00341400015168
0.00329536991194
0.00322431977838
0.00310527975671
0.00280721159652
0.00261410791427
0.00253684772179
0.00247092987411
0.00250533991493
0.00227850489318
0.00199075811543
0.00178241403773
0.00175789278001
0.0038027705159
0.00384508189745
0.00382547266781
0.00374771119095
0.00364793254994
0.00349935214035
0.0032568143215
0.00295921904035
0.00292936316691
0.00302750454284
0.00303519819863
0.00280308350921
0.00262773036957
0.00247768755071
0.00235031894408
0.00239416374825
0.00232349755242
0.00219568400644
0.00209273118526
0.00201108120382
0.00201379926875
0.0031068297103
0.00297079002485
0.00284976605326
0.0026462811511
0.00243278918788
0.00236332393251
0.00252176052891
0.00266303773969
0.00255733798258
0.00253749708645
0.00260783801787
0.0026328980457
0.00256167957559
0.00245184707455
0.00229330244474
0.00215572235174
0.00217474275269
0.00217777467333
0.0021631855052
0.00217141234316
0.00219936575741
0.00217213854194
0.00217635976151
0.00224751303904
0.00227001402527
0.00221442198381
0.00217830808833
0.00218309997581
0.00225291913375
0.00226200115867
0.00220745196566
0.00231086858548
0.00247581931762
0.00252234539948
0.00249415938742
0.0023774553556
0.00225410307758
0.00216095498763
0.00218273210339
0.00224320124835
0.00226274132729
0.00230668834411
0.00211724429391
0.00210945424624
0.00207393919118
0.00199637934566
0.00195032020565
0.00195511989295
0.00198584701866
0.00200699293055
0.00204182742164
0.0020803976804
0.00211280374788
0.00229757768102
0.00251735700294
0.00251882523298
0.00225378572941
0.00202467339113
0.0022135314066
0.00221603130922
0.00228111073375
0.00233020633459
0.00243819854222
0.00194434612058
0.00191250722855
0.00192385201808
0.00186826172285
0.00181581929792
0.00178290717304
0.00181576388422
0.00186943355948
0.00191402167547
0.00196534581482
0.00198569684289
0.00211817398667
0.00227925437503
0.00232544890605
0.00192351429723
0.00181860500015
0.00185121968389
0.0023732825648
0.00238924450241
0.0024407976307
0.00256207445636
0.00202949135564
0.00185703788884
0.00181781081483
0.00176264578477
0.00170435616747
0.00167071481701
0.00171129778028
0.00177900865674
0.00182614068035
0.00187337666284
0.00192058354151
0.00188972626347
0.0019349756185
0.00200216029771
0.00195436156355
0.00190957123414
0.00199301820248
0.00217392644845
0.0024333850015
0.00258181383833
0.00261889561079
0.0020646082703
0.00184256304055
0.00177262315992
0.00167874537874
0.00161794759333
0.00158555654343
0.0016000556061
0.00167088955641
0.00175400124863
0.00180592236575
0.0018032056978
0.001747231232
0.001740854932
0.00181680487003
0.00190780090634
0.00201075873338
0.00206687301397
0.00217410596088
0.00228511774912
0.00257842591964
0.00264645530842
0.00224305014126
0.00190997356549
0.00174852332566
0.00163743528537
0.00154829560779
0.00151510280557
0.00152134813834
0.00160200486425
0.00169097736944
0.00169886590447
0.00165940681472
0.00164726516232
0.00170981662814
0.00179240293801
0.00188975490164
0.00206601759419
0.00212378497235
0.00220676534809
0.00234339293092
0.00250137783587
0.00265882653184
0.00221630837768
0.00197198544629
0.00170720461756
0.00162438885309
0.0015550609678
0.00148522213567
0.00146600976586
0.00150476500858
0.00155728077516
0.00157009006944
0.00157702609431
0.00162668712437
0.00169414340053
0.00178111251444
0.00187874305993
0.00207843352109
0.00216935388744
0.00225326814689
0.00237834290601
0.00252652959898
0.00265522254631
0.00206916825846
0.00189535762183
0.00166252511553
0.00155872572213
0.00156905467156
0.0015543194022
0.00148654857185
0.00147214822937
0.00148627732415
0.001509633963
0.00154943892267
0.00160603737459
0.00170105975121
0.00180488417391
0.00192433875054
0.00207865308039
0.0021958486177
0.00228276499547
0.00240212725475
0.0025422044564
0.00267758080736
0.00199350342155
0.00179979635868
0.0017376630567
0.00160637660883
0.00131637149025
0.00118298002053
0.00121110631153
0.00129501963966
0.00141298351809
0.00146564433817
0.00152452010661
0.001587498351
0.00168160733301
0.00178107316606
0.00191234366503
0.00208799005486
0.00219517643563
0.00228551076725
0.00240048766136
0.00255479081534
0.00270287203602
0.00215608812869
0.0020019474905
0.00172216945793
0.00159473076928
0.0011766840471
0.00103675841819
0.00106973818038
0.00116514950059
0.0012616639724
0.00134629732929
0.00143848918378
0.00152807915583
0.00163803913165
0.0017608582275
0.00190206756815
0.00207742722705
0.00219105859287
0.00228641461581
0.00239279610105
0.00254023610614
0.00271934038028
0.00237329839729
0.00174146192148
0.00162285997067
0.00152770883869
0.00126515014563
0.00108450907283
0.00104018277489
0.00108476914465
0.00116574042477
0.00126124511007
0.00136550574098
0.00147826573811
0.00160125561524
0.00173670239747
0.00188652251381
0.00206261477433
0.00219105463475
0.0022762240842
0.00240116170608
0.00255257543176
0.00269125960767
0.0022002144251
0.00182128045708
0.0015447344631
0.00143579917494
0.0012747523142
0.00112127233297
0.00104628154077
0.00105233106297
0.00111524341628
0.00121028104331
0.0013222345151
0.00144461169839
0.00157577928621
0.00171666126698
0.00186945253517
0.00204400601797
0.00218719639815
0.00227557518519
0.00236587366089
0.002505434677
0.00261054397561
0.00207632500678
0.00186055200174
0.00159071292728
0.0014108910691
0.00126839231234
0.00113337708171
0.00105238694232
0.00104604416993
0.00110031466465
0.00119317229837
0.00130718643777
0.00143287761603
0.00156722473912
0.00171031290665
0.0018641037168
0.00203589675948
0.00218648416921
0.00227868068032
0.0023406506516
0.00244085188024
0.00253181904554
0.00260068685748
0.00228856015019
0.00245244870894
0.00277111004107
0.00309377978556
0.00347167695872
0.00345241860487
0.00354308448732
0.00349676585756
0.00353277032264
0.003844414372
0.00421736296266
0.00450220284984
0.00468456046656
0.00480447523296
0.00492453714833
0.00483065610752
0.00472685322165
0.0048142625019
0.00480241887271
0.0047897468321
0.00267702015117
0.00258897687308
0.00264935055748
0.00264405552298
0.00277233938687
0.00302971852943
0.00331062846817
0.00345424842089
0.00350518594496
0.00359675567597
0.00382968550548
0.00407755607739
0.00425379443914
0.00431377720088
0.00422740122303
0.00409967033193
0.00394342513755
0.00381738995202
0.00377421453595
0.00377040309832
0.0037746031303
0.002625788562
0.00254669622518
0.00259239017032
0.00262721860781
0.00275957817212
0.00294427433982
0.0032268660143
0.00353100779466
0.00369342113845
0.00379809155129
0.00385100673884
0.0038524242118
0.0039102495648
0.00381376384757
0.0034390068613
0.00322968978435
0.00306141702458
0.00242103333585
0.00212714099325
0.00129200064112
0.000927703629714
0.00265194452368
0.00270937872119
0.00275915907696
0.00284539186396
0.00301007460803
0.0031894701533
0.00339936721139
0.00372257386334
0.00393638014793
0.00387550145388
0.00374339800328
0.00360887451097
0.00355158490129
0.00340066151693
0.00312256906182
0.0028265665751
0.00250876555219
0.00226746592671
0.00159868446644
0.00140899256803
0.00160147284623
0.00293568754569
0.00292277825065
0.00305797788315
0.00324624078348
0.00345148006454
0.0036761353258
0.00379125983454
0.00377020472661
0.0037257114891
0.00364988506772
0.00351505097933
0.00337340217084
0.00316411769018
0.0029081099201
0.00277615222149
0.00277214869857
0.00253973854706
0.00220940145664
0.00189900083933
0.00175320112612
0.00153153529391
0.00319112720899
0.00339700561017
0.00362033653073
0.00378923444077
0.00383086060174
0.00373125192709
0.00360740884207
0.00350789027289
0.00342082139105
0.00334894214757
0.00329617108218
0.00313963298686
0.00278809154406
0.00266416068189
0.00252380571328
0.00246720109135
0.00245566293597
0.00220132176764
0.0019623322878
0.00183495914098
0.00182338664308
0.00381354591809
0.00384945212863
0.00384353101254
0.0037680757232
0.00366117339581
0.00350563670509
0.00326146301813
0.00298705557361
0.00300501636229
0.00311149447225
0.00307975918986
0.00281609664671
0.00268231122755
0.00254138978198
0.00236899638548
0.00236056791618
0.00229263305664
0.00218307832256
0.00207957183011
0.00204068934545
0.00205265870318
0.00313140894286
0.00300384615548
0.00294759124517
0.00276414235123
0.00255575706251
0.00249945744872
0.00263640889898
0.0027960871812
0.00271753058769
0.00264156796038
0.00268076639622
0.00269606360234
0.00257673929445
0.00252433307469
0.00245614955202
0.00227602943778
0.00223066448234
0.00221410254017
0.00221538566984
0.0021991673857
0.00219634803943
0.00234483578242
0.00231507280841
0.00239411974326
0.0023574642837
0.00227028480731
0.00225198059343
0.00231525464915
0.00241976464167
0.00242645526305
0.00235589360818
0.00243893358856
0.00253370590508
0.00249681551941
0.00245554791763
0.00240258849226
0.002282747766
0.00219066953287
0.00225716433488
0.00229540304281
0.0022709898185
0.00229721306823
0.00216729333624
0.00212564924732
0.00214294926263
0.00209372327663
0.00207784539089
0.00211073970422
0.00214702240191
0.00217019836418
0.00220367196016
0.0022306626197
0.00221842247993
0.00231691775844
0.00245709717274
0.00240836851299
0.00190103752539
0.00185159267858
0.00212824065238
0.00229878304526
0.00230989535339
0.00230184593238
0.00238094641827
0.00202998286113
0.00193861988373
0.00199957680888
0.00197927840054
0.0019633800257
0.00195557205006
0.00198636972345
0.0020294720307
0.0020679642912
0.00208658911288
0.00205872324295
0.00211975770071
0.00219703372568
0.0021422225982
0.00175644399133
0.00160707812756
0.00178898405284
0.00234354007989
0.00235801236704
0.00239309621975
0.00251794699579
0.00205832463689
0.00184964062646
0.00188846152741
0.00188077078201
0.00185709376819
0.00184425478801
0.00186962052248
0.00191197451204
0.00193564535584
0.00193991849665
0.00192237820011
0.0018920780858
0.00189676217269
0.00190789322369
0.00184485130012
0.00182707211934
0.00194723648019
0.00218533771113
0.00232918537222
0.00252321874723
0.00261005107313
0.00216362415813
0.0019184545381
0.00188285531476
0.00178796425462
0.0017560205888
0.00174446695019
0.00173594837543
0.00176845141686
0.00180816149805
0.00180892820936
0.00176769180689
0.00168623437639
0.00170363299549
0.00178684864659
0.00188385345973
0.00199457653798
0.00206514610909
0.0021316986531
0.00217906921171
0.00244167982601
0.00265667284839
0.00234219501726
0.00203035422601
0.00190545141231
0.00180294492748
0.00168549246155
0.00163665483706
0.00161478982773
0.00164489797316
0.00169262324926
0.00166273640934
0.00157045503147
0.00159189663827
0.001682207454
0.00178752909414
0.0018952274695
0.00206008809619
0.0021276329644
0.00217887805775
0.00226542097516
0.00243313331157
0.00263254856691
0.00231511960737
0.00206266879104
0.0018471312942
0.001777752419
0.00169979059137
0.00157081929501
0.00151741481386
0.00152693048585
0.00153518945444
0.00150049570948
0.00152601371519
0.0015917402925
0.00168517848942
0.00178610067815
0.00188951531891
0.00208220724016
0.00217245123349
0.00224357331172
0.00235011661425
0.00248897820711
0.00262925960124
0.00219684303738
0.0019719323609
0.00172155245673
0.00159380538389
0.00160464202054
0.00150292390026
0.00145071325824
0.00141864235047
0.00142730132211
0.00147075636778
0.00152131938376
0.0015938654542
0.00169079343323
0.00180266029201
0.00191830703989
0.00208561657928
0.0021993832197
0.00228122086264
0.00239020190202
0.00252068508416
0.00265364721417
0.00210202182643
0.00184879626613
0.00170343602076
0.00156474427786
0.00115038908552
0.001027108985
0.00113761774264
0.00123594584875
0.00134721794166
0.0014257930452
0.00149773445446
0.00157172547188
0.00166427716613
0.00176971533801
0.00189867673907
0.00208016205579
0.0021935806144
0.00229269871488
0.00240283692256
0.00253844377585
0.0026738694869
0.00215575704351
0.00199954025447
0.0017277932493
0.00149763002992
0.00112025847193
0.000952949165367
0.000986394938082
0.00109878077637
0.00121560750995
0.00131840899121
0.00141600868665
0.00151029683184
0.00161569926422
0.00173483893741
0.00187796831597
0.00205463171005
0.00219173310325
0.00229042721912
0.00241129775532
0.0025513342116
0.00266636977904
0.00220640539192
0.00184637890197
0.0015658485936
0.00145586393774
0.00123370974325
0.00106845772825
0.00101552100386
0.00105529010762
0.00113901414443
0.00123797578271
0.00134439975955
0.00145759934094
0.0015798099339
0.00171464285813
0.00186498533003
0.00203921925277
0.00219142250717
0.00228308187798
0.00243195169605
0.00258580758236
0.0026615660172
0.00205579167232
0.00177276600152
0.00156232935842
0.00143314234447
0.00127941544633
0.00113426777534
0.00105255097151
0.00104817794636
0.00110347918235
0.00119456509128
0.00130469456781
0.00142628839239
0.00155720824841
0.00169827905484
0.00185119477101
0.00202302075922
0.00218990491703
0.00227066851221
0.00238704867661
0.00254336278886
0.00263557117432
0.00202955771238
0.00181496352889
0.00158755993471
0.0014324048534
0.00129010924138
0.00115228851791
0.00106438377406
0.00104775407817
0.0010933293961
0.00118068198208
0.00129177980125
0.00141603255179
0.00154965242837
0.00169262639247
0.00184634118341
0.00201768660918
0.00219049421139
0.00227394746616
0.00233316607773
0.00248904945329
0.00263557396829
0.00257469830103
0.00224084453657
0.00222146022134
0.0027814777568
0.00313707767054
0.00348908943124
0.00345752481371
0.00354423141107
0.00350136635825
0.00352955865674
0.00377017911524
0.00406080577523
0.00442078802735
0.0046818270348
0.00479886261746
0.00479856180027
0.00472225341946
0.00473986146972
0.00481455167755
0.00480197649449
0.00478963181376
0.00263237464242
0.00256197084673
0.0026431796141
0.00264628138393
0.00277181575075
0.00311886519194
0.00337777216919
0.0035050958395
0.00355048058555
0.00360296852887
0.00379268429242
0.00395962875336
0.00417436519638
0.00431634252891
0.00422779424116
0.00400475924835
0.00385109730996
0.00381377572194
0.00377550511621
0.00375722907484
0.00375379947945
0.0025678856764
0.00254241749644
0.0025908795651
0.00262495386414
0.00277115264907
0.0030242591165
0.00330165657215
0.00357197923586
0.00374215794727
0.00379972136579
0.00384657387622
0.00380933191627
0.00383769837208
0.00379017367959
0.00346022215672
0.00325472117402
0.00303064100444
0.00227170065045
0.00209014094435
0.00128074828535
0.000929843634367
0.0026359083131
0.00271540880203
0.00276010623202
0.00284240045585
0.00300223310478
0.00318164029159
0.00339426985011
0.00372429960407
0.00394784705713
0.00388009357266
0.00374490791
0.00361310993321
0.00352649390697
0.00337823480368
0.00313270953484
0.00280979718082
0.00260698841885
0.00225707679056
0.00157506566029
0.0014524422586
0.00165352527983
0.00295064272359
0.00292777270079
0.00305412150919
0.00323606631719
0.00344837177545
0.00368123757653
0.00379953091033
0.00378996971995
0.00374421523884
0.00365981739014
0.00352039537393
0.00337633048184
0.00317455665208
0.00290614087135
0.00275842822157
0.00272519583814
0.00248934840783
0.00223027030006
0.00191471225116
0.00178997253533
0.00157253327779
0.00318760983646
0.00338812894188
0.00361517141573
0.00379222608171
0.00383592909202
0.00374132068828
0.00362569186836
0.00352249410935
0.00343702360988
0.0033355797641
0.00326987938024
0.00314360181801
0.00278495438397
0.00264610280283
0.00249013770372
0.00247373757884
0.00245811953209
0.00222104531713
0.00199709576555
0.00187656260096
0.00186206225771
0.00381622556597
0.0038523003459
0.00385168846697
0.00378093961626
0.00368137843907
0.00352603616193
0.00327763147652
0.00300420541316
0.00301805441268
0.00310853496194
0.00306902150624
0.00281250220723
0.00266196532175
0.00252876151353
0.00238141138107
0.00239397631958
0.00235731992871
0.00224281498231
0.00212782784365
0.00206241314299
0.0020421538502
0.0031509778928
0.00302256667055
0.00296536693349
0.00278383889236
0.00256912247278
0.00251882639714
0.00264259357937
0.00279971840791
0.00272474531084
0.00265092635527
0.00268477387726
0.00267027178779
0.00255354889669
0.00251899426803
0.00250334502198
0.00238263397478
0.00230311439373
0.00227064196952
0.00224657962099
0.00219391635619
0.00218587601557
0.00234626908787
0.00233020074666
0.00240754731931
0.00235703657381
0.00228536943905
0.0022523670923
0.00231339572929
0.00242082169279
0.0024287039414
0.00235212943517
0.00244652433321
0.00255155260675
0.002491382882
0.00245879567228
0.00249474518932
0.00238972133957
0.00222613825463
0.00228715734556
0.0022907317616
0.00226296973415
0.00228666421026
0.00221013138071
0.00216779229231
0.00218164175749
0.00211734022014
0.00208692159504
0.00210191495717
0.00213317153975
0.00216453336179
0.00219752662815
0.00222460739315
0.00225323508494
0.00233283336274
0.00241246074438
0.00237665348686
0.00197732681409
0.00188552367035
0.00223203608766
0.00228492519818
0.00230328738689
0.00229233363643
0.00236085639335
0.00211705686525
0.0020088381134
0.00205509085208
0.00200031325221
0.00197595916688
0.00196311948821
0.00199296046048
0.00203362014145
0.0020647495985
0.00209255167283
0.00207834714092
0.00215157400817
0.00222903280519
0.00210157898255
0.0017497970257
0.00167141342536
0.00192736962344
0.00234096101485
0.00231499876827
0.00233283033594
0.00245179189369
0.00217907410115
0.00194756430574
0.00193300039973
0.00189473212231
0.00187759380788
0.0018623364158
0.00188517093193
0.00192376202904
0.00194952159654
0.00195737369359
0.00193622696679
0.00196464848705
0.00196330156177
0.00189102231525
0.00183675799053
0.00183456204832
0.00198573316447
0.00221888371743
0.0023232284002
0.00249188765883
0.00254613370635
0.0022660268005
0.00196058303118
0.00196454743855
0.00188749271911
0.00179806514643
0.00177265156526
0.0017620526487
0.00178877171129
0.00183159986045
0.00183489162009
0.00179848331027
0.00172577996273
0.00173415255267
0.00180210557301
0.00189487135503
0.00199131038971
0.00208136369474
0.00215940317139
0.00217496161349
0.00240847538225
0.00261897989549
0.00234985467978
0.00208807527088
0.00199318723753
0.00194255204406
0.00181298155803
0.00169361615553
0.00164612021763
0.00167207384948
0.00171296671033
0.0016912757419
0.00158652174287
0.00160744856112
0.00169804506004
0.00180097110569
0.00190755527001
0.0020395568572
0.0021399105899
0.00218277913518
0.00225189514458
0.00240437174216
0.00260845897719
0.00232585147023
0.00210908357985
0.00195990991779
0.00188897445332
0.00183140055742
0.00170165160671
0.00158622977324
0.00156553660054
0.00156241154764
0.00150041142479
0.00152882188559
0.00159193237778
0.00169110309798
0.00179463147651
0.0018992787227
0.00206109811552
0.00217560632154
0.00224238121882
0.00233664154075
0.00246547884308
0.00260172411799
0.00227021053433
0.0020552277565
0.00187465676572
0.00174746301491
0.00171472947113
0.00150227546692
0.00142096122727
0.00141658412758
0.00142557511572
0.00146186014172
0.00151225086302
0.0015880074352
0.00168494018726
0.001798520796
0.0019130265573
0.00207392964512
0.00219483859837
0.0022840006277
0.00238497136161
0.00250726379454
0.00263527361676
0.00221772119403
0.00198369054124
0.00181436655112
0.00168928818312
0.00129184033722
0.00101606629323
0.00105727650225
0.0011897329241
0.00131071067881
0.00139878143091
0.00147509516682
0.0015560251195
0.00164943700656
0.00175845692866
0.00188605312724
0.0020516384393
0.00218870048411
0.00229722284712
0.00241225212812
0.00253080646507
0.00264969421551
0.00212026573718
0.00200599431992
0.00184653501492
0.00157018518075
0.00119962880854
0.000987550476566
0.000963466707617
0.00105648010504
0.00118182285223
0.00129153218586
0.00139202189166
0.00149082229473
0.00159757141955
0.00171841925476
0.0018628987018
0.00203040591441
0.00218564434908
0.00229161069728
0.00242450204678
0.00256711314432
0.00263841683045
0.00211007613689
0.00197715754621
0.00168986746576
0.00148314621765
0.00125996826682
0.00108151102904
0.00100530148484
0.00103037012741
0.00111157458741
0.00121381843928
0.00132279971149
0.00143746519461
0.00156007660553
0.00169490417466
0.00184609903954
0.00201478064992
0.00218875682913
0.00229176320136
0.00245844572783
0.00259359995835
0.00263028405607
0.0020090395119
0.00180479278788
0.00165069312789
0.00148758105934
0.00130709656514
0.0011452465551
0.0010490064742
0.0010335202096
0.00108282547444
0.00117202999536
0.00128249626141
0.00140469358303
0.00153608748224
0.00167733279523
0.00183034921065
0.0019985192921
0.00218684063293
0.00228480552323
0.0024344320409
0.0025648411829
0.00262895575725
0.00199483265169
0.00182217708789
0.00164543895517
0.00149296643212
0.00132117397152
0.00116431817878
0.00106334395241
0.00103637564462
0.00107522530016
0.00115952361375
0.00126982515212
0.00139431445859
0.00152829580475
0.00167131063063
0.00182500144001
0.0019921825733
0.00218570139259
0.00226700981148
0.00238110218197
0.0025388461072
0.00262912386097
0.00287747103721
0.00267252326012
0.00268779112957
0.00289701693691
0.00332645187154
0.00338213099167
0.00341898924671
0.00353768700734
0.00350990961306
0.00352722685784
0.0037613210734
0.00398095464334
0.00426047621295
0.00459716469049
0.00478503154591
0.00464604701847
0.00457911612466
0.00472230883315
0.00478340499103
0.00476869568229
0.00474271317944
0.00264249765314
0.00254635652527
0.00259596249089
0.00263589713722
0.0027118390426
0.00302658136934
0.00336287496611
0.00355476420373
0.00358974817209
0.00363939045928
0.00382040650584
0.00392605597153
0.00405128719285
0.00424221716821
0.00424589496106
0.00396009953693
0.00382630480453
0.00389960431494
0.00387239665724
0.00382893858477
0.00381187023595
0.00266631762497
0.00248667155392
0.00248016160913
0.00252798851579
0.00274093030021
0.00307571259327
0.00347054516897
0.00377981038764
0.00384937203489
0.0038286705967
0.00384638574906
0.00380048365332
0.00376699259505
0.00372296269052
0.00348690198734
0.0032551868353
0.00285618379712
0.00207476923242
0.00188495975453
0.0012210146524
0.000882471504156
0.00267660454847
0.00272945757024
0.00274114497006
0.00289278919809
0.00311259785667
0.00329557806253
0.00354821397923
0.00390189420432
0.00401969347149
0.00388253526762
0.00375960813835
0.0036277549807
0.0034805580508
0.00331832328811
0.00309687526897
0.00272993114777
0.00260373251513
0.00241765705869
0.0019018293824
0.0016576780472
0.00170256465208
0.00302252150141
0.00302721909247
0.00317567423917
0.00333622703329
0.00351368566044
0.00371132045984
0.00381694873795
0.00382022932172
0.00378260854632
0.00369325256906
0.00352527364157
0.00334015022963
0.00310389720835
0.00282509811223
0.00266396836378
0.00265640299767
0.00253375642933
0.00232131918892
0.00197348627262
0.00172167783603
0.00149928592145
0.00322759477422
0.00341588142328
0.00362865347415
0.00379437580705
0.00383405853063
0.0037572181318
0.00365717941895
0.00354451639578
0.00343774538487
0.00330717256293
0.00318654882722
0.00309916050173
0.00278655067086
0.00260686688125
0.00245834025554
0.00244688196108
0.00251286639832
0.00227455142885
0.00201582233422
0.00186661898624
0.00186123140156
0.00379666616209
0.00384340737946
0.00384484324604
0.00378052587621
0.00369387399405
0.00354251125827
0.00326990243047
0.00295435055159
0.00292399781756
0.0030006817542
0.00299744843505
0.00278325122781
0.00255529116839
0.0024936273694
0.00239019514993
0.00235500442795
0.00234849750996
0.00226709223352
0.00217689527199
0.00207991758361
0.00203018588945
0.00317290215753
0.00301905884407
0.00288986111991
0.00269094575197
0.00246397661977
0.00239956332371
0.0025242138654
0.00268512871116
0.00256265094504
0.00256130192429
0.0026331837289
0.00257281260565
0.00250235944986
0.00244986987673
0.00242106569931
0.00238547939807
0.00230365991592
0.00226884079166
0.00224790815264
0.00217870250344
0.00217365007848
0.00216536945663
0.00218954775482
0.00227192346938
0.00229121977463
0.00226317369379
0.00218563503586
0.00218145293184
0.00225529284216
0.00226599513553
0.00225072121248
0.00234721577726
0.00247108400799
0.00247872434556
0.00245853816159
0.00249096238986
0.00243798084557
0.00226206099615
0.00225705304183
0.00225456152111
0.00223933532834
0.00227161985822
0.00220348942094
0.00218987860717
0.00214951508678
0.00204366748221
0.00197523273528
0.0019398824079
0.00196425407194
0.00200269022025
0.00203179288656
0.0020584994927
0.00220730225556
0.00235943892039
0.00242180237547
0.00243845302612
0.00226653274149
0.00209256936796
0.00228074146435
0.00225126394071
0.00225806469098
0.0022753754165
0.00233830930665
0.00218722317368
0.00208465661854
0.0020203657914
0.00191474624444
0.00184456538409
0.00179816409945
0.00182216649409
0.00187254743651
0.00191464857198
0.00197465554811
0.00210013822652
0.00226161512546
0.00232149218209
0.00222738459706
0.00187678076327
0.00188039068598
0.00215840479359
0.00231006345712
0.00228470098227
0.00229700375348
0.00237845932133
0.00231304531917
0.00209402688779
0.00194201839622
0.00179565488361
0.0017347834073
0.00170307105873
0.00170640589204
0.00177410198376
0.00184802769218
0.00189709442202
0.00196200492792
0.00204102788121
0.00204356550239
0.00198396365158
0.00193423382007
0.00192524120212
0.00207386002876
0.00229367357679
0.00237192353234
0.00236614653841
0.00242923083715
0.00240074633621
0.00206584134139
0.00192596099805
0.0017984805163
0.00164125242736
0.00160035234876
0.00161641696468
0.0016818519216
0.00178028841037
0.00182979844976
0.00183919630945
0.00179329584353
0.00179638946429
0.00185327697545
0.00194355496205
0.00201678555459
0.00212244433351
0.0022386983037
0.00230160518549
0.00246140430681
0.00258005061187
0.00237289979123
0.00213631102815
0.00202500191517
0.00185496546328
0.00173516164068
0.00161138793919
0.00153605558444
0.0016197435325
0.00170545745641
0.00172894645948
0.00167369458359
0.0016722563887
0.00174417346716
0.00182703859173
0.00192558870185
0.00203806278296
0.00214592483826
0.00222426559776
0.00229150010273
0.00236987299286
0.00255513028242
0.00231251353398
0.0021460710559
0.00202193553559
0.00188681390136
0.001817211858
0.00172484526411
0.00159104052
0.00156391935889
0.00159497233108
0.00155920477118
0.00156998448074
0.00162524660118
0.00170628714841
0.00180416239891
0.00192255247384
0.00205431412905
0.00217257067561
0.00224928045645
0.00233973469585
0.0024633212015
0.00259573361836
0.00226522353478
0.00208892975934
0.00198036152869
0.00187625037506
0.00180169125088
0.00155010237359
0.00140586914495
0.00142170814797
0.00147072633263
0.00148384342901
0.00152303243522
0.00159171095584
0.00168314098846
0.00179438467603
0.00192444876302
0.00206786999479
0.002185550984
0.00228456011973
0.00238499674015
0.00250366446562
0.00261751329526
0.00219525303692
0.00205993466079
0.00197064387612
0.00188853289001
0.00152590777725
0.00115411914885
0.00104666501284
0.00115074566565
0.00130297394935
0.0013899889309
0.00145924568642
0.00154084153473
0.0016348331701
0.00174533983227
0.00188437383622
0.00204342487268
0.00217984011397
0.00229503889568
0.00241700094193
0.00253650988452
0.00263521936722
0.0021321575623
0.00203672377393
0.00197868677787
0.00174569117371
0.00136439548805
0.0010980888037
0.00099215330556
0.00104160048068
0.00115760590415
0.00126732105855
0.00136735546403
0.00147120549809
0.00158243544865
0.00170724675991
0.00185436813626
0.00201729871333
0.00217114971019
0.0022916176822
0.00243674754165
0.00258563272655
0.00262664328329
0.00206732167862
0.00202457094565
0.00190307328012
0.00161876704078
0.00135098886676
0.00112374557648
0.00100935250521
0.00101134181023
0.0010844609933
0.00118665408809
0.00129799940623
0.00141515198629
0.00154004385695
0.00167643441819
0.00182788469829
0.00199526664801
0.00217025540769
0.00227725342847
0.00246415566653
0.00259659974836
0.00262431264855
0.0020169429481
0.00195567472838
0.00179811322596
0.00159296533093
0.00135631894227
0.00115655537229
0.00103807437699
0.00101068464573
0.00105533166789
0.00114424270578
0.00125614425633
0.00137979106512
0.0015119278105
0.00165330443997
0.00180566380732
0.00197294354439
0.00216607563198
0.00227649626322
0.00247210357338
0.00258555402979
0.00262221693993
0.00197180733085
0.00189221894834
0.0017772129504
0.0015822154237
0.00135943351779
0.00116846035235
0.00104958133306
0.00101344438735
0.00104816909879
0.00113170442637
0.00124287197832
0.00136842776556
0.00150298851077
0.0016458525788
0.00179828132968
0.0019628147129
0.00216225418262
0.00226041628048
0.00243038614281
0.00258776382543
0.00262329052202
0.00288221775554
0.00294374185614
0.00301243551075
0.00349449552596
0.00375412870198
0.00352946924977
0.00347525812685
0.00355116697028
0.00353495799936
0.00354674924165
0.0037726406008
0.00399333052337
0.00419000862166
0.00452886288986
0.00477633671835
0.00462083891034
0.00457234261557
0.00472857709974
0.00477595860139
0.00474294181913
0.00470272963867
0.00267294701189
0.00265079387464
0.00272870110348
0.00290160952136
0.00289136962965
0.00315210036933
0.00345063512214
0.00360361323692
0.0036071666982
0.00367755489424
0.00385225494392
0.00394058274105
0.00397884426638
0.00416673067957
0.00426110578701
0.00400983029976
0.00390991196036
0.00399600574747
0.00397663051262
0.00391280371696
0.0038843518123
0.00275093642995
0.00276061170734
0.00274610426277
0.00282232300378
0.00294898310676
0.00317135034129
0.00361987156793
0.00400954578072
0.00398827064782
0.00386849348433
0.00385400257073
0.00380490557291
0.0037440834567
0.00371827324852
0.00357293058187
0.00338615686633
0.0029892786406
0.00219662976451
0.00142446847167
0.00122886081226
0.000764604017604
0.00282226433046
0.00290088239126
0.00292642833665
0.00297561613843
0.00318905687891
0.00342173362151
0.00374911609106
0.00409519253299
0.00408460525796
0.00389122474007
0.00379249802791
0.00368311046623
0.00355662941001
0.00344668189064
0.00328116863966
0.00290420069359
0.00282451952808
0.00290365843102
0.00252465554513
0.00170442124363
0.00150766177103
0.00310614216141
0.0031293660868
0.00328607577831
0.00345427799039
0.00360583979636
0.00374782294966
0.00382881006226
0.00384826166555
0.00384591543116
0.00379113457166
0.00365965836681
0.00352957285941
0.00334587111138
0.00303503498435
0.00285144709051
0.0029599966947
0.0028295412194
0.00262835109606
0.0020645968616
0.00160302862059
0.00130413216539
0.00326395733282
0.00343818776309
0.00363546586595
0.00378201436251
0.00382820260711
0.0037943481002
0.00373504939489
0.00365167972632
0.00357703422196
0.00351846707053
0.00346379890107
0.00334155093879
0.00308049051091
0.00296113011427
0.00288868928328
0.00274272309616
0.00278619304299
0.00257252762094
0.0021403785795
0.00192630535457
0.0019053814467
0.0037782699801
0.00383839569986
0.00386621616781
0.00383637589402
0.00377318984829
0.00363098364323
0.00337431579828
0.0030796485953
0.00312446476892
0.00331992469728
0.00331141799688
0.00317736715078
0.00296589569189
0.00279959011823
0.00278919120319
0.00270653585903
0.00255570723675
0.00234473519959
0.00215797848068
0.00203560269438
0.00198560860008
0.003240828868
0.00308502325788
0.00287491432391
0.00261531118304
0.00236508413218
0.00238263071515
0.00266073411331
0.00292508746497
0.00284721888602
0.00290401373059
0.00301111117005
0.00297361752018
0.00288625434041
0.00283689680509
0.0026860521175
0.00252218032256
0.00235460861586
0.00222108466551
0.00218924647197
0.00216330797412
0.0021772030741
0.00193496758584
0.00209132255986
0.00224839663133
0.00241332501173
0.00249683507718
0.00245617888868
0.00243581039831
0.00250522815622
0.00252560409717
0.00258360803127
0.00269932276569
0.00275706965476
0.00279694865458
0.00277272495441
0.00262765074149
0.00234462111257
0.00217171106488
0.00216913595796
0.00222149863839
0.00223206332885
0.0022647920996
0.00215294887312
0.00229191360995
0.00235991738737
0.00232782657258
0.00225384160876
0.00224037072621
0.00226638419554
0.00228456617333
0.00229183980264
0.0023234388791
0.00250432663597
0.00268099782988
0.00266936165281
0.0026202488225
0.00243335054256
0.00217377208173
0.0021731427405
0.0022188667208
0.00225211889483
0.00228668563068
0.00234437570907
0.00229208357632
0.0023064899724
0.00227674166672
0.00225698482245
0.00219708541408
0.00212919944897
0.00210807286203
0.00214499887079
0.00217323005199
0.00220635230653
0.00238311500289
0.00255894172005
0.0025363850873
0.00238939723931
0.00213242974132
0.00198130798526
0.00225444650277
0.00227558542974
0.00229422328994
0.00232842098922
0.00238918233663
0.0025369906798
0.0024030089844
0.00223680026829
0.00212598033249
0.00203519826755
0.00198886287399
0.00196702359244
0.00201348285191
0.00208079977892
0.00210684514605
0.00218047620729
0.00224838708527
0.00219644326717
0.00211372831836
0.00197830959223
0.00194730807561
0.00216536200605
0.00230182311498
0.00232723448426
0.00235587521456
0.00241322629154
0.00258400477469
0.00242366502061
0.00222336198203
0.00204716925509
0.00193795445375
0.00187409669161
0.00184570485726
0.00189453817438
0.00195172207896
0.00195089657791
0.00193370878696
0.00189381372184
0.00186894612852
0.00188446417451
0.00195648777299
0.00200341595337
0.00214517326094
0.00228483998217
0.00234898691997
0.00249470910057
0.00250331196003
0.00250855367631
0.00241482607089
0.00231425045058
0.00206428277306
0.00193806784227
0.00186479813419
0.00171580770984
0.00174618640449
0.00179079140071
0.0017839827342
0.00174241058994
0.00173519691452
0.00177505263127
0.00184103532229
0.00193394487724
0.00204140809365
0.00213501253165
0.00224739010446
0.00233024917543
0.00241047912277
0.00259605259635
0.002418366028
0.00234949844889
0.00229758047499
0.0021247905679
0.00191191816702
0.00180732866284
0.00166161509696
0.00158747367095
0.00164004869293
0.00161806982942
0.00160166260321
0.00163733493537
0.00170683371834
0.00180581375025
0.00194018671755
0.00206875032745
0.00216119969264
0.00223998050205
0.0023343754001
0.00246787723154
0.00259501952678
0.00235336250626
0.00226532807574
0.00220537139103
0.00211154506542
0.00194876769092
0.00160741829313
0.00144839077257
0.00143325037789
0.00149430590682
0.00148873357102
0.00151362281758
0.00157834298443
0.00167970533948
0.00179678306449
0.00195033312775
0.00207561790012
0.00218128529377
0.0022769686766
0.00237874989398
0.00249798223376
0.00260316650383
0.00226907944307
0.00220400560647
0.00216320320033
0.00205572461709
0.00174939539284
0.00132132403087
0.00111423374619
0.00113619468175
0.00130226509646
0.00137231568806
0.00143684260547
0.00152466946747
0.00162692833692
0.00174497661646
0.00189947581384
0.00205536349677
0.00217698118649
0.00229449174367
0.00242122379132
0.00255269836634
0.00262939278036
0.0022014088463
0.00214150780812
0.00208946713246
0.00199047941715
0.0015051580267
0.00114762329031
0.000980874989182
0.00101939833257
0.00112797738984
0.00124010909349
0.00134204537608
0.00145042990334
0.00156661262736
0.00169589184225
0.00184553058352
0.00200777780265
0.00216629053466
0.00229083816521
0.00244898884557
0.00258668605238
0.00262250052765
0.00210065790452
0.00206479197368
0.00200616754591
0.00179212470539
0.00140795111656
0.00112393940799
0.000981345307082
0.000972649198957
0.00104763661511
0.00115348806139
0.00126850174274
0.00138819077983
0.00151449837722
0.00165169825777
0.00180409883615
0.0019730462227
0.00215424527414
0.00226983008906
0.00246164388955
0.00258970726281
0.00261956639588
0.00204708729871
0.00201774109155
0.00192308437545
0.00167307874653
0.00137645809446
0.00114106747787
0.00100657646544
0.000974577793386
0.00101899157744
0.0011102046119
0.00122460781131
0.00134999037255
0.00148290430661
0.00162409734912
0.00177469977643
0.00193894084077
0.00213000643998
0.00226892903447
0.00246155448258
0.0025813782122
0.00261686719023
0.0020279805176
0.00199182401411
0.00187971652485
0.00163662387058
0.00136900297366
0.00115211226512
0.00102023978252
0.000978706637397
0.00101296568755
0.00109789101407
0.00121096801013
0.00133786618244
0.00147283961996
0.00161515187938
0.00176508445293
0.00192292942666
0.00211572856642
0.00225663301535
0.00242644967511
0.00258279475383
0.00261816219427
